LAMMPS (16 Mar 2018)
  using 1 OpenMP thread(s) per MPI task
units           metal
dimension       3
boundary        p p p

atom_style      full

read_data	DATA.FILE
  orthogonal box = (-70 -70 -70) to (70 70 70)
  8 by 8 by 17 MPI processor grid
  reading atoms ...
  265838 atoms
  scanning bonds ...
  2 = max bonds/atom
  scanning angles ...
  1 = max angles/atom
  reading bonds ...
  176634 bonds
  reading angles ...
  88317 angles
  2 = max # of 1-2 neighbors
  1 = max # of 1-3 neighbors
  1 = max # of 1-4 neighbors
  2 = max # of special neighbors
include     ../shared/PARM.FILE
# Generated by setup_lammps

pair_style      hybrid eam lj/charmm/coul/long 8.0 10.0
bond_style      harmonic
angle_style     charmm
kspace_style    pppm    0.0001
special_bonds   charmm

mass   1      196.9666 # AU
mass   2      15.9994 # OT
mass   3      1.0080 # HT

pair_coeff  1     1     eam ../shared/Au_u3.eam # AU   AU
Reading potential file ../shared/Au_u3.eam with DATE: 2007-06-11
pair_coeff  1     2     lj/charmm/coul/long 0.0256 3.6000 0.0000 1.7818 # OT   AU
pair_coeff  1     3     lj/charmm/coul/long -0.0000 2.6909 0.0000 1.7818 # HT   AU
pair_coeff  2     2     lj/charmm/coul/long 0.0067 3.1661 0.0000 1.7818 # OT   OT
pair_coeff  2     3     lj/charmm/coul/long -0.0000 2.4739 0.0000 1.7818 # HT   OT
pair_coeff  3     3     lj/charmm/coul/long 0.0000 1.7818 0.0000 1.7818 # HT   HT

bond_coeff  1       24.0679   1.0000 # OT HT

angle_coeff 1        1.9874 109.4000   0.0000   0.0000 # HT OT HT



group           AU type 1
887 atoms in group AU
group           water type 2 3
264951 atoms in group water
group		group1 type 1
887 atoms in group group1
group		group3 type 2 3
264951 atoms in group group3


timestep        0.001
run_style       verlet
neighbor 	2.0 bin
neigh_modify    every 1 delay 2 check yes

fix 		99 AU spring tether 10.0 0.0 0.0 0.0 0.0
fix 		fixmomentum all momentum 1 linear 1 1 1

dump       	23 all dcd  10000 out.dcd
#dump        233 all xyz 1 out.xyz

thermo_style custom step temp press enthalpy lx ly lz
thermo		1000


###### minimize
minimize 1e-4 1e-6 100 1000
WARNING: Using 'neigh_modify every 1 delay 0 check yes' setting during minimization (../min.cpp:168)
PPPM initialization ...
  using 12-bit tables for long-range coulomb (../kspace.cpp:321)
  G vector (1/distance) = 0.263352
  grid = 72 72 72
  stencil order = 5
  estimated absolute RMS force accuracy = 0.00139571
  estimated relative force accuracy = 9.69266e-05
  using double precision FFTs
  3d grid and FFT values/proc = 2816 648
WARNING: Using a manybody potential with bonds/angles/dihedrals and special_bond exclusions (../pair.cpp:218)
Neighbor list info ...
  update every 1 steps, delay 0 steps, check yes
  max neighbors/atom: 2000, page size: 100000
  master list distance cutoff = 12
  ghost atom cutoff = 12
  binsize = 6, bins = 24 24 24
  3 neighbor lists, perpetual/occasional/extra = 3 0 0
  (1) pair eam, perpetual, skip from (3)
      attributes: half, newton on
      pair build: skip
      stencil: none
      bin: none
  (2) pair lj/charmm/coul/long, perpetual, skip from (3)
      attributes: half, newton on
      pair build: skip
      stencil: none
      bin: none
  (3) neighbor class addition, perpetual
      attributes: half, newton on
      pair build: half/bin/newton
      stencil: half/bin/3d/newton
      bin: standard
Per MPI rank memory allocation (min/avg/max) = 13.23 | 13.32 | 14.92 Mbytes
Step Temp Press Enthalpy Lx Ly Lz
       0            0    535562.27    1088094.8          140          140          140
     100            0   -10081.277   -71054.114          140          140          140
Loop time of 2.46939 on 1088 procs for 100 steps with 265838 atoms

97.3% CPU use with 1088 MPI tasks x 1 OpenMP threads

Minimization stats:
  Stopping criterion = max iterations
  Energy initial, next-to-last, final =
         170853.207177     -53780.5929384     -53788.2115643
  Force two-norm initial, final = 944832 19.2034
  Force max component initial, final = 271828 1.72657
  Final line search alpha, max atom move = 0.0264969 0.0457486
  Iterations, force evaluations = 100 110

MPI task timing breakdown:
Section |  min time  |  avg time  |  max time  |%varavg| %total
---------------------------------------------------------------
Pair    | 0.39316    | 1.0732     | 1.2619     |   9.3 | 43.46
Bond    | 0.0027797  | 0.00674    | 0.0077784  |   0.6 |  0.27
Kspace  | 0.96276    | 1.1523     | 1.838      |   9.0 | 46.66
Neigh   | 0.030955   | 0.031632   | 0.032189   |   0.1 |  1.28
Comm    | 0.072152   | 0.082307   | 0.09103    |   1.7 |  3.33
Output  | 0.00042701 | 0.00051353 | 0.00057101 |   0.0 |  0.02
Modify  | 0.021535   | 0.026498   | 0.034353   |   2.0 |  1.07
Other   |            | 0.09625    |            |       |  3.90

Nlocal:    244.336 ave 276 max 155 min
Histogram: 3 9 0 0 5 71 245 429 276 50
Nghost:    5142.52 ave 5381 max 4324 min
Histogram: 4 3 5 1 7 60 155 399 275 179
Neighs:    28.83 ave 4177 max 0 min
Histogram: 1076 0 0 2 3 2 1 1 1 2

Total # of neighbors = 31367
Ave neighs/atom = 0.117993
Ave special neighs/atom = 1.99333
Neighbor list builds = 3
Dangerous builds = 0


###### equilibrate - NVT


velocity all create 300.0 4928462 rot yes dist gaussian
fix 1 all nvt temp 300 300 $(100.0*dt)
fix 1 all nvt temp 300 300 0.10000000000000000555

run 1000000 # 1 ns
PPPM initialization ...
  using 12-bit tables for long-range coulomb (../kspace.cpp:321)
  G vector (1/distance) = 0.263352
  grid = 72 72 72
  stencil order = 5
  estimated absolute RMS force accuracy = 0.00139571
  estimated relative force accuracy = 9.69266e-05
  using double precision FFTs
  3d grid and FFT values/proc = 2816 648
WARNING: Using a manybody potential with bonds/angles/dihedrals and special_bond exclusions (../pair.cpp:218)
Neighbor list info ...
  update every 1 steps, delay 2 steps, check yes
  max neighbors/atom: 2000, page size: 100000
  master list distance cutoff = 12
  ghost atom cutoff = 12
  binsize = 6, bins = 24 24 24
  3 neighbor lists, perpetual/occasional/extra = 3 0 0
  (1) pair eam, perpetual, skip from (3)
      attributes: half, newton on
      pair build: skip
      stencil: none
      bin: none
  (2) pair lj/charmm/coul/long, perpetual, skip from (3)
      attributes: half, newton on
      pair build: skip
      stencil: none
      bin: none
  (3) neighbor class addition, perpetual
      attributes: half, newton on
      pair build: half/bin/newton
      stencil: half/bin/3d/newton
      bin: standard
Per MPI rank memory allocation (min/avg/max) = 12.84 | 12.92 | 13.8 Mbytes
Step Temp Press Enthalpy Lx Ly Lz
     100          300   -6068.5802    -53873.05          140          140          140
    1000     272.1928   -1934.1425   -40635.731          140          140          140
    2000    299.02922   -1637.2042   -37968.001          140          140          140
    3000     301.1031   -1098.6999   -37042.159          140          140          140
    4000    299.90267   -1310.0251   -37569.372          140          140          140
    5000    299.45967   -1155.3384   -37316.764          140          140          140
    6000    299.72885   -1236.7309   -37513.338          140          140          140
    7000    300.08039   -1197.0749    -37466.44          140          140          140
    8000    300.16793   -1100.2241   -37258.949          140          140          140
    9000    299.96331   -1083.6369    -37271.53          140          140          140
   10000    299.96605   -1165.9429   -37396.937          140          140          140
   11000    300.62284   -1260.1485   -37543.209          140          140          140
   12000    299.35217   -1224.7927   -37528.481          140          140          140
   13000    299.45633   -1251.4405   -37616.597          140          140          140
   14000      299.639   -1057.1406   -37213.562          140          140          140
   15000      299.624   -955.79659   -37072.115          140          140          140
   16000    300.39119    -1009.625   -37181.217          140          140          140
   17000    299.72242    -1095.136   -37359.941          140          140          140
   18000     300.0675   -1136.8719   -37432.728          140          140          140
   19000    299.79868   -1139.1414   -37428.804          140          140          140
   20000    300.50215   -1101.1837   -37338.078          140          140          140
   21000    299.89997   -1093.9753    -37323.62          140          140          140
   22000    299.30988   -1151.2494   -37496.003          140          140          140
   23000    299.95028    -1260.599   -37649.237          140          140          140
   24000    300.10041   -1265.8369   -37667.411          140          140          140
   25000    299.31941   -1289.4928   -37767.427          140          140          140
   26000    301.30827   -1128.7447   -37402.515          140          140          140
   27000    299.95603   -1048.3836   -37316.912          140          140          140
   28000    300.50568   -1174.5186   -37514.965          140          140          140
   29000    299.63225   -1184.3278   -37546.888          140          140          140
   30000    299.80799   -1353.0051   -37833.302          140          140          140
   31000    300.24514   -1081.2666   -37330.662          140          140          140
   32000    299.87829   -1240.4251   -37663.743          140          140          140
   33000    301.10791   -1080.3333   -37344.732          140          140          140
   34000    300.06545    -1160.099   -37521.402          140          140          140
   35000    300.33351   -1122.6815   -37420.015          140          140          140
   36000    299.14548   -1320.2306   -37853.928          140          140          140
   37000    299.86365    -1247.391   -37699.955          140          140          140
   38000    300.48349   -1107.8232   -37390.389          140          140          140
   39000     300.3488    -1412.548   -37955.499          140          140          140
   40000    299.95067   -1346.4515   -37797.773          140          140          140
   41000    300.06326   -1231.1573   -37669.926          140          140          140
   42000    299.22378   -1426.9082   -38021.351          140          140          140
   43000    299.59159   -1398.5423   -37963.473          140          140          140
   44000    300.88411   -1340.7062   -37843.052          140          140          140
   45000    300.62807   -1275.3793   -37728.733          140          140          140
   46000    300.30994   -1279.8322    -37773.43          140          140          140
   47000    300.60716   -1308.5992   -37737.514          140          140          140
   48000    299.78667   -1156.3382   -37572.306          140          140          140
   49000    299.25122   -1099.0919   -37492.907          140          140          140
   50000    299.98738   -979.59707   -37219.025          140          140          140
   51000    299.01645   -1217.3094    -37674.55          140          140          140
   52000    300.64046    -1151.998   -37518.469          140          140          140
   53000    300.77512    -1146.232   -37549.452          140          140          140
   54000    299.15922   -1295.7202   -37874.684          140          140          140
   55000    300.07221   -1091.8035   -37453.516          140          140          140
   56000     299.8089   -1205.1054   -37729.139          140          140          140
   57000    300.23293   -1114.6856   -37534.075          140          140          140
   58000    300.12653   -1228.1651    -37683.32          140          140          140
   59000    299.54396   -1178.9276    -37651.02          140          140          140
   60000    299.91511   -1206.6799    -37673.78          140          140          140
   61000     299.7865   -1230.4023   -37687.993          140          140          140
   62000    300.09725   -1330.1897   -37933.762          140          140          140
   63000    299.44119   -1207.1452   -37708.322          140          140          140
   64000    299.06799   -1044.0697   -37422.266          140          140          140
   65000    299.60937   -1053.6061   -37441.849          140          140          140
   66000    299.79086   -1122.2176   -37608.541          140          140          140
   67000     300.4588   -1066.8783   -37470.325          140          140          140
   68000    300.13573   -1148.7361    -37608.95          140          140          140
   69000    299.88924   -1379.6152   -37989.668          140          140          140
   70000    300.58041   -1298.0634   -37797.616          140          140          140
   71000    299.39334   -1271.6228   -37830.454          140          140          140
   72000    299.70361   -1156.0745   -37632.596          140          140          140
   73000    300.09439   -1127.9197    -37581.68          140          140          140
   74000    300.97047   -1353.4459    -37980.56          140          140          140
   75000    300.39947   -1217.6558   -37718.725          140          140          140
   76000    298.81618   -1145.2681   -37650.587          140          140          140
   77000    300.20543   -1342.3858   -37935.592          140          140          140
   78000    300.68698   -1246.3363   -37766.262          140          140          140
   79000     299.3781    -1309.477   -37936.217          140          140          140
   80000    300.70094   -1119.0555    -37519.93          140          140          140
   81000    300.85641   -1077.9027   -37469.157          140          140          140
   82000    299.14296   -1367.8833   -37993.095          140          140          140
   83000    299.91068   -1222.0533   -37722.031          140          140          140
   84000    300.16594   -1246.0568    -37814.69          140          140          140
   85000    300.16121   -1373.1211    -38009.31          140          140          140
   86000    300.35557   -1254.2628   -37760.748          140          140          140
   87000    300.03184   -1322.9967   -37903.158          140          140          140
   88000    300.07539   -1384.7093   -38001.394          140          140          140
   89000    299.39857   -1243.7073   -37807.724          140          140          140
   90000     300.1756   -1242.7226   -37719.938          140          140          140
   91000    299.91023   -1286.0341   -37852.436          140          140          140
   92000    300.45547   -1385.5267   -38056.903          140          140          140
   93000    299.94127   -1343.2376   -37991.585          140          140          140
   94000     300.4457   -1155.6824   -37622.094          140          140          140
   95000     300.3105   -989.31451    -37356.17          140          140          140
   96000    299.94024    -1098.011    -37559.89          140          140          140
   97000    300.05161   -1307.8336   -37904.492          140          140          140
   98000    300.36956   -1049.4781   -37485.977          140          140          140
   99000    300.20539   -1180.3696   -37705.891          140          140          140
  100000    299.65018   -1155.3656   -37664.418          140          140          140
  101000    300.49005   -1351.4379   -37953.015          140          140          140
  102000    299.68045    -1442.462   -38153.039          140          140          140
  103000    299.32573   -1296.7739   -37923.075          140          140          140
  104000    299.62323   -1252.0301   -37841.862          140          140          140
  105000    299.60572   -1386.9194   -38054.587          140          140          140
  106000    299.62995   -1302.0887   -37890.885          140          140          140
  107000    299.34023   -1133.9072    -37648.31          140          140          140
  108000    299.51809    -1183.826   -37692.711          140          140          140
  109000    299.39421   -1291.2736   -37871.325          140          140          140
  110000    300.70974   -1146.2466   -37624.469          140          140          140
  111000    300.27556    -1040.171   -37505.626          140          140          140
  112000    299.75571   -1098.6161   -37580.052          140          140          140
  113000    299.92704   -1335.7677   -37967.414          140          140          140
  114000    300.37486   -1250.9607   -37800.841          140          140          140
  115000    299.92316   -1294.8036   -37892.617          140          140          140
  116000    299.22176   -1249.8658   -37851.015          140          140          140
  117000    300.40061   -1208.4197   -37734.775          140          140          140
  118000    299.71625   -1200.5901   -37743.726          140          140          140
  119000     300.4378   -1298.9592     -37905.4          140          140          140
  120000    299.49408   -1198.9417   -37739.215          140          140          140
  121000    300.23697   -1064.2146   -37479.899          140          140          140
  122000     300.0879   -1071.2845   -37475.702          140          140          140
  123000    299.80889   -1144.1547   -37670.826          140          140          140
  124000    299.20769   -1214.3094   -37815.032          140          140          140
  125000    299.93367   -1270.9425   -37881.311          140          140          140
  126000     299.5268   -1407.0335   -38095.383          140          140          140
  127000     300.2157   -1313.7607    -37993.84          140          140          140
  128000    299.81964   -1195.5219    -37807.33          140          140          140
  129000    300.40267   -1228.8003   -37813.414          140          140          140
  130000    300.41456   -1444.4105   -38181.902          140          140          140
  131000    300.37655   -1329.9333   -37977.693          140          140          140
  132000      299.614   -1465.6019   -38244.718          140          140          140
  133000    299.75798   -1311.2526   -37961.374          140          140          140
  134000    299.66844   -1185.7263   -37729.602          140          140          140
  135000    301.33077   -1090.7542    -37521.79          140          140          140
  136000     300.2988   -1284.2989   -37868.229          140          140          140
  137000    299.75433   -1209.7116   -37824.758          140          140          140
  138000    299.65163    -1201.333   -37813.997          140          140          140
  139000    299.60918   -1187.7404   -37744.715          140          140          140
  140000    300.85404   -1247.6886   -37808.244          140          140          140
  141000    299.57979   -1244.8514   -37834.374          140          140          140
  142000    300.03258   -1290.5205   -37956.464          140          140          140
  143000    299.66243     -1341.97   -38000.822          140          140          140
  144000    299.95816   -1301.4657   -37922.655          140          140          140
  145000    300.20236   -1551.7985   -38373.562          140          140          140
  146000    299.80456   -1346.1503   -38000.792          140          140          140
  147000    299.57608   -1320.7054   -37979.078          140          140          140
  148000    300.00896   -1407.3323   -38135.399          140          140          140
  149000    300.46287   -1404.1113   -38085.307          140          140          140
  150000    299.99664    -1201.558   -37748.531          140          140          140
  151000    300.49382   -1242.8854   -37851.487          140          140          140
  152000    300.03093   -1203.1736   -37762.732          140          140          140
  153000    299.11141   -1243.8581   -37915.338          140          140          140
  154000    300.56056   -1251.4002   -37855.612          140          140          140
  155000    299.17778    -1248.007   -37875.544          140          140          140
  156000    299.50284   -1118.8042   -37629.078          140          140          140
  157000    300.59887   -1082.8003   -37537.041          140          140          140
  158000     300.0399    -1132.646   -37662.419          140          140          140
  159000    299.09659   -1314.1419   -38035.946          140          140          140
  160000    300.01478   -1472.4067   -38240.814          140          140          140
  161000    300.02026   -1448.1698   -38199.599          140          140          140
  162000    300.24019   -1275.0042   -37911.923          140          140          140
  163000    300.52201   -1293.0402   -37935.716          140          140          140
  164000    300.78363   -1353.9099   -38039.001          140          140          140
  165000    300.52071   -1014.1159   -37420.248          140          140          140
  166000    300.20085   -1441.9581   -38180.078          140          140          140
  167000    299.52271   -1169.6796   -37760.768          140          140          140
  168000    299.71335   -1302.0975   -37951.785          140          140          140
  169000    299.56905   -1378.6714   -38103.427          140          140          140
  170000    300.04605   -1160.7259   -37708.092          140          140          140
  171000    299.76775   -1292.5054   -37971.752          140          140          140
  172000    299.72254   -1177.4082   -37774.307          140          140          140
  173000    301.58652   -1117.6475   -37577.155          140          140          140
  174000    300.13289   -1238.7081   -37877.536          140          140          140
  175000    300.06759   -1262.9023   -37889.592          140          140          140
  176000    299.87389   -1103.3837   -37650.196          140          140          140
  177000    300.38264   -1205.2228   -37809.261          140          140          140
  178000    299.64019   -1094.6186   -37625.772          140          140          140
  179000    300.53678   -1189.0867   -37767.081          140          140          140
  180000    300.15357   -1298.3393   -37956.018          140          140          140
  181000    299.02032   -1319.0951   -38001.449          140          140          140
  182000    299.50922   -1439.8446   -38195.652          140          140          140
  183000    300.49263   -1120.2837   -37612.795          140          140          140
  184000    299.92735   -1169.9666   -37745.858          140          140          140
  185000     299.3913   -1051.8817   -37581.936          140          140          140
  186000    299.71764   -1116.3868    -37677.04          140          140          140
  187000    299.93045   -1352.7412   -38052.869          140          140          140
  188000    299.46605   -1272.0312   -37958.079          140          140          140
  189000     299.5136   -1237.2542   -37859.814          140          140          140
  190000     299.3185   -1312.5015    -38002.76          140          140          140
  191000    300.63063    -1387.249   -38063.925          140          140          140
  192000    300.65267   -1450.7845   -38217.548          140          140          140
  193000    300.00121   -1204.8784   -37819.189          140          140          140
  194000    300.54734   -1342.9194   -37981.997          140          140          140
  195000    299.82288    -1319.011   -38008.448          140          140          140
  196000    300.12879   -1393.0653    -38108.26          140          140          140
  197000     301.3082   -1275.2712   -37867.644          140          140          140
  198000    299.95029   -1170.6183   -37734.971          140          140          140
  199000    299.76549   -1220.9723   -37843.278          140          140          140
  200000    299.87639   -1318.8577   -37981.997          140          140          140
  201000    299.84313   -1302.2326   -37935.344          140          140          140
  202000    300.10815   -1209.0598   -37766.331          140          140          140
  203000    299.48599   -1045.8663   -37553.983          140          140          140
  204000    299.71396   -1330.7171   -37986.254          140          140          140
  205000    300.26491   -1413.5986   -38110.698          140          140          140
  206000    299.78821   -1415.3807   -38170.477          140          140          140
  207000    299.87511   -1365.9877   -38021.807          140          140          140
  208000    299.67762   -1284.6437   -37951.689          140          140          140
  209000    299.96175   -1084.7998   -37609.314          140          140          140
  210000    299.95131   -1075.4952   -37567.341          140          140          140
  211000    300.03445   -1309.8186   -38001.827          140          140          140
  212000    300.09584   -1291.8061   -37979.194          140          140          140
  213000    300.16989   -1333.2793   -38062.774          140          140          140
  214000    299.97072   -1383.2278   -38145.665          140          140          140
  215000    300.19712    -1129.667   -37647.452          140          140          140
  216000    300.08421   -1279.0471   -37901.394          140          140          140
  217000     299.5829   -1320.1473   -38043.092          140          140          140
  218000    300.28497   -1389.8124   -38100.996          140          140          140
  219000    299.04477   -1186.1925   -37859.524          140          140          140
  220000    300.43363   -1378.4145   -38105.346          140          140          140
  221000    300.49815   -1303.1056   -37954.855          140          140          140
  222000    299.06764   -1289.1255   -37986.974          140          140          140
  223000    299.87041   -1061.6946   -37621.566          140          140          140
  224000     299.8511   -1253.7518   -37934.271          140          140          140
  225000    300.82728   -1354.4999   -38047.168          140          140          140
  226000    300.08802   -1356.6095   -38017.599          140          140          140
  227000    299.69786   -1151.2054    -37715.97          140          140          140
  228000    299.69146   -1111.1717   -37667.079          140          140          140
  229000    299.52482   -1299.2106     -37969.6          140          140          140
  230000    300.61756   -1202.9218   -37793.738          140          140          140
  231000    300.34131   -1394.1231   -38121.566          140          140          140
  232000    299.44904   -1378.6747   -38106.931          140          140          140
  233000    299.30807   -1390.4439   -38142.138          140          140          140
  234000      300.176   -1273.1206   -37916.123          140          140          140
  235000    299.70989    -1201.857   -37831.191          140          140          140
  236000    300.42364   -1430.2649    -38182.46          140          140          140
  237000    300.23012    -1018.835   -37514.451          140          140          140
  238000    300.54704    -1301.544    -37976.42          140          140          140
  239000    300.95792   -1331.1854   -37988.403          140          140          140
  240000    299.41594   -1220.8858   -37844.377          140          140          140
  241000    300.31887   -1199.4259   -37768.614          140          140          140
  242000    299.80928    -1337.309   -38033.723          140          140          140
  243000    300.75329   -1221.6027   -37821.328          140          140          140
  244000    299.98185   -1110.5106   -37610.726          140          140          140
  245000    300.34236   -1205.5487    -37779.85          140          140          140
  246000    300.09826     -1301.05   -37978.431          140          140          140
  247000      299.745    -1459.163   -38276.689          140          140          140
  248000    299.13722   -1285.3577    -37993.81          140          140          140
  249000    299.85744   -1334.7772   -38035.809          140          140          140
  250000    300.60878   -1246.5161   -37909.531          140          140          140
  251000    300.67052   -968.23625   -37373.853          140          140          140
  252000    299.10213   -1120.8461   -37701.623          140          140          140
  253000    299.96195   -1339.9311   -38022.016          140          140          140
  254000    300.00421    -1290.434   -37911.132          140          140          140
  255000    299.75286   -1382.0062   -38131.923          140          140          140
  256000    299.94855   -1118.0036   -37677.001          140          140          140
  257000    300.43072   -1261.2794   -37912.871          140          140          140
  258000    300.71672   -1290.0105   -37906.485          140          140          140
  259000    300.14369   -1474.8382   -38274.617          140          140          140
  260000    299.85735   -1254.2236   -37874.171          140          140          140
  261000    299.28791   -1272.8268    -38009.41          140          140          140
  262000    299.49978   -1458.2211   -38263.817          140          140          140
  263000    300.15816   -1444.3338   -38271.252          140          140          140
  264000    299.86904   -1336.1753    -38066.14          140          140          140
  265000    300.08895   -1146.5663   -37720.349          140          140          140
  266000    299.42936   -1202.4233   -37866.002          140          140          140
  267000    300.41136   -1247.0378   -37861.982          140          140          140
  268000    300.09218   -1419.9176   -38210.316          140          140          140
  269000    299.66681   -1523.5901   -38358.773          140          140          140
  270000    299.10789   -1181.3609    -37823.53          140          140          140
  271000     300.3548   -1057.1569     -37551.5          140          140          140
  272000    300.44493   -1243.6822   -37864.421          140          140          140
  273000    300.46589   -1379.1472   -38134.056          140          140          140
  274000    299.30767   -1287.0323   -37963.201          140          140          140
  275000    300.02621   -1012.4781   -37457.967          140          140          140
  276000    299.81687   -1235.7421   -37903.751          140          140          140
  277000    300.44341   -1324.8945   -37998.553          140          140          140
  278000    299.97057    -1325.619   -38030.179          140          140          140
  279000    299.85536   -1217.7842    -37796.72          140          140          140
  280000    299.58669   -1504.8645   -38315.769          140          140          140
  281000    299.82911   -1210.9614   -37830.645          140          140          140
  282000    299.83968   -1237.7106   -37848.488          140          140          140
  283000    299.84813   -1180.0553   -37756.841          140          140          140
  284000    299.82046   -1251.2152   -37886.705          140          140          140
  285000    299.76204   -1203.6001   -37821.313          140          140          140
  286000    299.66802    -1308.579   -37994.109          140          140          140
  287000     300.4376   -1225.9847   -37822.803          140          140          140
  288000    300.43587   -1077.9949   -37575.865          140          140          140
  289000    299.40798   -1259.8597   -37954.068          140          140          140
  290000    300.73068   -1267.4557   -37903.353          140          140          140
  291000     300.4298   -1537.5661   -38400.627          140          140          140
  292000    299.69969   -1313.9495   -38021.212          140          140          140
  293000    300.41402   -1273.7089   -37936.878          140          140          140
  294000    300.21524   -1336.4875   -38025.997          140          140          140
  295000    299.63813   -1307.6629   -37992.558          140          140          140
  296000    300.01623   -1191.0325   -37832.646          140          140          140
  297000     300.8818   -1248.9849   -37884.818          140          140          140
  298000      300.149   -1268.7168   -37976.258          140          140          140
  299000    299.78502     -1333.34    -38033.63          140          140          140
  300000    299.69048   -1660.1638   -38595.282          140          140          140
  301000    299.94179   -1281.6313   -37968.625          140          140          140
  302000     300.7854   -1450.3898   -38240.397          140          140          140
  303000    300.43741   -1218.2194   -37857.529          140          140          140
  304000    299.97749    -1092.409    -37628.35          140          140          140
  305000    299.79216   -1227.9067   -37874.757          140          140          140
  306000    299.31048   -1173.3757   -37799.894          140          140          140
  307000    300.21218    -1039.683   -37566.761          140          140          140
  308000    300.05648   -1165.0208   -37745.081          140          140          140
  309000    299.57747   -1447.6539   -38249.818          140          140          140
  310000    299.94243   -1544.7076   -38411.812          140          140          140
  311000    299.95941   -1233.2405   -37923.969          140          140          140
  312000    299.47853   -1471.2905   -38292.697          140          140          140
  313000    299.30514   -1200.4003   -37839.531          140          140          140
  314000    299.80323   -1260.8154   -37893.777          140          140          140
  315000    299.50327    -1293.926   -37981.355          140          140          140
  316000    299.80501   -1119.9571   -37704.522          140          140          140
  317000    299.73435   -1352.8309    -38096.91          140          140          140
  318000    299.64726   -1237.7914   -37910.277          140          140          140
  319000    300.57241   -1172.6251    -37774.36          140          140          140
  320000     300.1909   -1250.1281   -37929.032          140          140          140
  321000    300.84781   -1142.6343   -37710.974          140          140          140
  322000    300.16494   -1279.0619   -37947.642          140          140          140
  323000    299.23818    -1305.919   -38027.229          140          140          140
  324000    299.76495   -1294.8521   -37971.095          140          140          140
  325000    298.75136   -1432.2167   -38249.979          140          140          140
  326000    299.83968   -1383.1331   -38132.953          140          140          140
  327000    300.24067   -1221.4662   -37822.888          140          140          140
  328000    300.41734   -1259.2277   -37880.357          140          140          140
  329000    299.31019   -1185.6749    -37805.93          140          140          140
  330000     299.5098   -1433.3846   -38197.591          140          140          140
  331000    299.21207   -1351.0838   -38095.434          140          140          140
  332000    298.93977   -1167.4052   -37796.098          140          140          140
  333000    299.74047   -916.43135   -37321.964          140          140          140
  334000    299.47367   -1067.0812   -37614.832          140          140          140
  335000    300.56556   -1060.2566   -37573.199          140          140          140
  336000    300.26703    -1175.009   -37784.642          140          140          140
  337000    300.32924   -1211.8164   -37837.714          140          140          140
  338000    299.84121   -1293.5994   -38013.721          140          140          140
  339000    299.17749    -1138.311   -37705.603          140          140          140
  340000    300.80042   -1119.6036   -37651.025          140          140          140
  341000    299.71056   -1124.8735   -37672.824          140          140          140
  342000    300.10903   -1195.9842   -37804.044          140          140          140
  343000    300.44887   -1170.3356   -37724.262          140          140          140
  344000    299.27257   -1130.8545   -37702.128          140          140          140
  345000     299.2212   -1321.1188   -38042.558          140          140          140
  346000    299.71877   -1267.9101   -37905.334          140          140          140
  347000    300.05105   -1208.1428   -37865.522          140          140          140
  348000    300.06827     -1460.06   -38255.165          140          140          140
  349000    300.61526   -1207.1888   -37780.578          140          140          140
  350000    301.36718   -1072.7017   -37504.827          140          140          140
  351000    300.37773    -1108.892   -37704.377          140          140          140
  352000    299.78884   -1379.5693   -38121.414          140          140          140
  353000    300.01998    -1185.923   -37749.058          140          140          140
  354000    300.66416    -1123.653   -37654.197          140          140          140
  355000    300.08124   -1157.2781   -37698.337          140          140          140
  356000    301.05226    -986.6482   -37387.572          140          140          140
  357000    299.09254   -1300.4757   -37985.667          140          140          140
  358000    299.77236   -1280.1288   -37945.933          140          140          140
  359000    299.99959   -1357.6431   -38072.046          140          140          140
  360000     300.0413   -1015.7426   -37495.145          140          140          140
  361000    299.80697   -1216.5083   -37850.977          140          140          140
  362000    299.59521   -1331.4675   -38009.401          140          140          140
  363000    299.35601   -1313.2073   -38028.217          140          140          140
  364000    300.01072   -1095.1877   -37605.402          140          140          140
  365000    300.48252   -1025.1183   -37425.553          140          140          140
  366000    300.22145   -1229.9816   -37851.679          140          140          140
  367000    300.52128   -1364.4459   -38085.398          140          140          140
  368000    299.63228   -1326.2767    -38052.32          140          140          140
  369000    300.53577   -1148.1223   -37702.767          140          140          140
  370000    300.98615   -1186.9764   -37721.147          140          140          140
  371000    299.81736   -1203.0195   -37847.428          140          140          140
  372000    299.99554   -1185.8684   -37815.852          140          140          140
  373000    300.43969   -1327.0698   -38014.161          140          140          140
  374000    299.96121   -1197.3121   -37825.706          140          140          140
  375000    299.86173   -1268.2924   -37908.925          140          140          140
  376000     300.4549   -1181.8561    -37791.37          140          140          140
  377000    300.32084   -1346.6595   -38037.618          140          140          140
  378000    299.34389   -1478.5722   -38333.138          140          140          140
  379000    300.74968   -1467.6468   -38197.739          140          140          140
  380000    299.48975   -1234.1941   -37826.198          140          140          140
  381000    299.77037   -1064.6295   -37567.284          140          140          140
  382000    300.92319   -1155.5018   -37652.843          140          140          140
  383000     300.3121   -1260.8277   -37868.799          140          140          140
  384000    299.46667   -1280.8049   -37965.865          140          140          140
  385000     300.0901   -1257.2836   -37913.719          140          140          140
  386000    299.55447   -1028.7314   -37505.469          140          140          140
  387000    300.37353    -1349.752   -38042.765          140          140          140
  388000    300.38929   -1332.3811     -37977.8          140          140          140
  389000    299.80426   -1144.9266   -37697.128          140          140          140
  390000    299.45873   -1193.9538   -37754.434          140          140          140
  391000    300.13646   -1259.0437   -37845.155          140          140          140
  392000    299.60894   -1358.9525   -38063.554          140          140          140
  393000     300.3811    -939.6257   -37337.011          140          140          140
  394000    299.70418   -1251.7983   -37949.535          140          140          140
  395000    299.50956   -1042.3811   -37531.796          140          140          140
  396000    299.64111   -974.61651   -37398.315          140          140          140
  397000    300.24405   -1135.5248    -37646.42          140          140          140
  398000    299.25858   -1248.7886   -37896.087          140          140          140
  399000    301.11042   -1431.7048     -38141.1          140          140          140
  400000    299.59069   -1043.4377   -37548.564          140          140          140
  401000    299.68566   -1156.6295   -37752.389          140          140          140
  402000    300.67386   -1191.4566    -37807.51          140          140          140
  403000     299.7037   -1221.2424   -37868.749          140          140          140
  404000    300.72141   -1228.5723   -37799.841          140          140          140
  405000    300.68405   -1207.6755   -37799.488          140          140          140
  406000    299.91314   -1346.9339   -38082.093          140          140          140
  407000      300.688   -1214.1209   -37815.953          140          140          140
  408000    299.93842   -1247.3952   -37921.873          140          140          140
  409000    300.40733   -1094.1335   -37558.731          140          140          140
  410000    299.26272   -1308.4842   -38009.152          140          140          140
  411000    300.39464   -1382.7929     -38104.7          140          140          140
  412000    300.71729   -1316.3599   -37948.871          140          140          140
  413000    300.62628   -1304.9333   -37940.429          140          140          140
  414000    300.61619   -1343.6021   -38025.744          140          140          140
  415000    300.10392    -1359.499   -38084.754          140          140          140
  416000    299.67971   -1120.0365   -37656.498          140          140          140
  417000    299.56826    -1140.986   -37709.616          140          140          140
  418000    299.72336   -1271.1953   -37889.452          140          140          140
  419000    299.85419   -1386.4038   -38139.358          140          140          140
  420000    299.88892   -1380.0067   -38095.172          140          140          140
  421000    299.71779    -1240.887   -37872.088          140          140          140
  422000    299.53011   -1119.9303   -37692.013          140          140          140
  423000    300.24867   -1270.5159   -37925.057          140          140          140
  424000    299.54135   -1499.5716   -38280.589          140          140          140
  425000    299.90435   -1432.2807   -38193.214          140          140          140
  426000    299.21525   -1173.1538   -37813.345          140          140          140
  427000    300.25026   -1419.9872   -38176.729          140          140          140
  428000    299.93403   -1366.3391   -38133.273          140          140          140
  429000    299.96696   -1203.7695   -37846.255          140          140          140
  430000    299.80783   -1309.6322   -37999.615          140          140          140
  431000    299.79124   -1226.6424   -37823.412          140          140          140
  432000    299.49192   -1302.3634   -37975.251          140          140          140
  433000    299.37024   -1386.1321   -38151.731          140          140          140
  434000    299.98126   -1170.2951   -37781.719          140          140          140
  435000    299.94507    -1169.001   -37805.508          140          140          140
  436000    299.57099   -1323.1688   -38041.373          140          140          140
  437000    299.81618   -1147.4278   -37739.073          140          140          140
  438000    300.28112   -1503.5279   -38285.203          140          140          140
  439000    300.10936   -1176.3523   -37753.182          140          140          140
  440000    300.66624   -1375.6158   -38054.271          140          140          140
  441000    299.64988   -1419.4965   -38203.746          140          140          140
  442000    300.60264    -1297.542   -37960.684          140          140          140
  443000    300.30834    -1318.237   -37989.527          140          140          140
  444000    298.59856   -1322.8052   -38070.151          140          140          140
  445000    300.62232   -1337.5651   -38053.564          140          140          140
  446000    300.25862   -1213.1872   -37836.251          140          140          140
  447000    299.91038    -1143.924   -37718.959          140          140          140
  448000    300.18756   -1318.7111   -38028.701          140          140          140
  449000    300.17638   -1217.8477   -37823.667          140          140          140
  450000    299.55504   -1236.3478   -37856.658          140          140          140
  451000    300.31483   -1274.5971   -37902.149          140          140          140
  452000    300.46192   -1373.2408   -38052.041          140          140          140
  453000    299.80621    -1303.609   -37992.808          140          140          140
  454000    299.48763   -1237.1249   -37934.024          140          140          140
  455000     300.0386   -1368.6477   -38083.952          140          140          140
  456000    300.86382   -1166.8137   -37673.332          140          140          140
  457000    299.99714   -1265.0841   -37898.921          140          140          140
  458000    299.80102    -1459.895   -38256.307          140          140          140
  459000    300.88575   -1442.4391   -38155.351          140          140          140
  460000    299.56694   -1302.3824   -37984.374          140          140          140
  461000    300.65347   -1134.0179   -37667.662          140          140          140
  462000    300.46523    -1230.882   -37846.903          140          140          140
  463000    299.59631   -1189.8734   -37801.974          140          140          140
  464000    299.88273   -1083.6907   -37591.861          140          140          140
  465000    299.77157   -1216.3912   -37787.818          140          140          140
  466000    300.36177   -1271.8289   -37948.744          140          140          140
  467000    300.30386    -1401.147   -38143.529          140          140          140
  468000    300.50886   -1353.5782   -38044.301          140          140          140
  469000    299.90669    -1185.638   -37777.056          140          140          140
  470000    300.35759   -1288.6933   -37974.821          140          140          140
  471000     300.2954   -1226.2128   -37852.005          140          140          140
  472000    300.01139   -1315.6766   -37983.964          140          140          140
  473000    299.39523   -1338.5713   -38069.001          140          140          140
  474000    300.14048   -1169.3584    -37739.73          140          140          140
  475000    299.82693   -1145.6082   -37719.999          140          140          140
  476000    299.69203   -1334.4391   -38036.243          140          140          140
  477000    300.02377   -1262.7018   -37907.185          140          140          140
  478000    299.21725   -1176.3969   -37775.323          140          140          140
  479000    299.85577   -1390.1558   -38140.074          140          140          140
  480000    300.06021   -1256.8466   -37866.798          140          140          140
  481000     298.8511   -1141.9177   -37717.906          140          140          140
  482000    300.06089     -1071.38   -37559.581          140          140          140
  483000    300.43482   -1207.7781   -37812.483          140          140          140
  484000    299.99597    -1222.273   -37811.233          140          140          140
  485000    299.47689   -1167.7347   -37767.539          140          140          140
  486000    300.23749   -1246.0217   -37887.371          140          140          140
  487000    299.60995   -1098.9637    -37670.99          140          140          140
  488000    300.02679   -1136.1604    -37679.96          140          140          140
  489000    299.51711   -1394.3862   -38148.755          140          140          140
  490000    300.47274   -1321.1414   -38008.258          140          140          140
  491000    299.68456   -1280.5954   -37935.938          140          140          140
  492000    300.64546   -1421.6709   -38130.491          140          140          140
  493000    300.92318   -1340.6979   -38023.264          140          140          140
  494000    300.12674   -1224.2631    -37819.62          140          140          140
  495000    299.71587   -1172.4302   -37792.704          140          140          140
  496000    298.77615    -1266.226   -37952.535          140          140          140
  497000     300.6345   -1180.7578   -37728.315          140          140          140
  498000    299.75528   -1127.2775   -37654.172          140          140          140
  499000    299.74192   -1281.3552   -37947.849          140          140          140
  500000    299.79868   -1420.8472   -38157.675          140          140          140
  501000    300.89044   -1439.4575   -38163.552          140          140          140
  502000    299.86715   -1405.9988   -38154.421          140          140          140
  503000    300.95933   -1192.7773   -37763.653          140          140          140
  504000    299.45378   -1105.6154   -37642.122          140          140          140
  505000    300.23032   -1234.5539   -37862.759          140          140          140
  506000    299.29129     -1170.09   -37792.044          140          140          140
  507000    299.93936   -1127.8068   -37649.239          140          140          140
  508000    300.69421    -1380.387   -38096.153          140          140          140
  509000    299.28373   -1410.5578   -38170.592          140          140          140
  510000    300.34417   -1163.9178   -37706.317          140          140          140
  511000    299.74929   -1348.2498   -38061.625          140          140          140
  512000     299.2958   -1228.8475   -37875.176          140          140          140
  513000    300.60665   -1248.2243   -37877.044          140          140          140
  514000    299.95605   -1272.0675   -37940.416          140          140          140
  515000    299.80252    -1499.323   -38273.288          140          140          140
  516000    300.60269   -1178.6938   -37773.401          140          140          140
  517000    299.83532   -1177.4878   -37782.847          140          140          140
  518000    300.21169   -1016.9339    -37481.72          140          140          140
  519000    300.16009   -1412.7864   -38140.719          140          140          140
  520000    300.14094   -1339.8691   -38079.057          140          140          140
  521000    300.26063   -1236.2025   -37840.385          140          140          140
  522000    299.96482   -1259.4185   -37886.183          140          140          140
  523000     299.6333   -1174.2978   -37790.193          140          140          140
  524000    299.86735   -1194.2422   -37784.672          140          140          140
  525000    300.48338   -1243.8807   -37827.759          140          140          140
  526000    299.57749   -1211.3348   -37836.739          140          140          140
  527000    300.54506   -1298.7857   -37928.186          140          140          140
  528000    301.11893   -1307.8042   -37920.611          140          140          140
  529000    300.60667   -1305.1985   -37964.722          140          140          140
  530000    300.41687   -1080.0341   -37553.008          140          140          140
  531000    300.24882    -1126.195   -37664.897          140          140          140
  532000    299.50862   -1313.2693   -38021.345          140          140          140
  533000    300.02402   -1081.0635   -37617.393          140          140          140
  534000    299.81369   -1112.8306   -37635.523          140          140          140
  535000    299.59885   -1407.1895   -38155.736          140          140          140
  536000    299.68506   -1362.8198   -38094.745          140          140          140
  537000    300.25329   -1182.4254    -37776.41          140          140          140
  538000    300.35614    -1224.535   -37846.862          140          140          140
  539000    300.17311   -1270.2986   -37903.797          140          140          140
  540000    299.62704   -1094.2685   -37624.812          140          140          140
  541000    299.51396   -1201.0079   -37811.418          140          140          140
  542000    299.82033   -1209.9295   -37837.842          140          140          140
  543000    299.94146   -1235.1108   -37848.829          140          140          140
  544000    299.41793   -1275.1636   -37942.248          140          140          140
  545000    300.62433   -1194.3641   -37758.731          140          140          140
  546000    299.69237   -1173.1373   -37793.831          140          140          140
  547000    300.05969   -1381.2132   -38129.026          140          140          140
  548000    299.60356   -1282.0769   -37957.514          140          140          140
  549000    300.75833   -1155.2021     -37695.6          140          140          140
  550000    299.85149   -1219.6141   -37876.488          140          140          140
  551000    299.13055   -1304.6198    -38022.65          140          140          140
  552000    300.10463   -1171.7343   -37760.089          140          140          140
  553000     299.9044   -1300.1368   -38003.697          140          140          140
  554000     299.6133   -1224.5327   -37895.278          140          140          140
  555000    300.38349        -1166    -37732.82          140          140          140
  556000    299.83143   -1070.0991   -37619.144          140          140          140
  557000    299.25206   -1337.3131   -38096.631          140          140          140
  558000    299.90652   -1267.8836    -37927.22          140          140          140
  559000    299.54936   -1224.4003    -37812.19          140          140          140
  560000     300.3268   -1235.9248   -37853.664          140          140          140
  561000    299.97176   -1300.7881   -37953.198          140          140          140
  562000    299.66612   -1338.3358   -38098.812          140          140          140
  563000     299.7025   -1264.6582   -37895.779          140          140          140
  564000    300.11029   -1164.0789   -37732.253          140          140          140
  565000    299.97537   -1346.4789   -38015.839          140          140          140
  566000    299.76093   -1183.8084   -37793.406          140          140          140
  567000    298.92893   -1119.1537   -37696.744          140          140          140
  568000    300.69884   -1326.0169   -38011.677          140          140          140
  569000    299.65356   -1425.1689   -38192.011          140          140          140
  570000    299.49275   -1268.9312   -37925.231          140          140          140
  571000    300.03919   -1219.8284   -37873.043          140          140          140
  572000    300.24881   -1469.9999   -38243.063          140          140          140
  573000    299.55522    -1344.531   -38107.458          140          140          140
  574000     300.4088   -1289.7519   -37916.284          140          140          140
  575000    300.43666   -1183.4804   -37779.166          140          140          140
  576000    299.67787    -1212.993   -37801.425          140          140          140
  577000     301.0643    -1125.309   -37660.064          140          140          140
  578000    300.12441   -1192.3104   -37780.319          140          140          140
  579000    300.90422   -1147.8839    -37671.43          140          140          140
  580000    300.49493   -1106.8687   -37602.247          140          140          140
  581000    300.42582   -1238.9565   -37845.077          140          140          140
  582000    300.61452   -1340.5999   -37997.461          140          140          140
  583000    299.14956   -1224.5961   -37854.392          140          140          140
  584000    300.44945   -1268.5597   -37881.082          140          140          140
  585000    300.00042   -1122.2362   -37678.139          140          140          140
  586000    299.43929    -1342.907   -38079.558          140          140          140
  587000    299.57874   -1380.2993   -38124.768          140          140          140
  588000    300.08414   -1165.4159   -37770.467          140          140          140
  589000    300.58307   -1124.6133   -37653.552          140          140          140
  590000    300.21725   -1138.9378   -37741.149          140          140          140
  591000     299.9145   -1380.4138   -38116.141          140          140          140
  592000    300.16012   -1366.9113   -38059.837          140          140          140
  593000    300.04914    -1215.103   -37858.802          140          140          140
  594000    300.13033   -1236.8005   -37879.236          140          140          140
  595000      299.846   -1415.1665   -38147.549          140          140          140
  596000    300.10074   -1119.0989   -37628.314          140          140          140
  597000    298.90869   -1191.0153   -37808.464          140          140          140
  598000    300.09708   -1374.9314   -38063.701          140          140          140
  599000    299.85733   -1135.5098   -37711.865          140          140          140
  600000    300.23861    -1102.064   -37634.126          140          140          140
  601000    300.47417   -1340.5255   -38051.889          140          140          140
  602000    299.61535   -1422.3085   -38204.677          140          140          140
  603000    300.66124   -1278.2638   -37908.943          140          140          140
  604000    300.05679   -1344.0574   -38056.997          140          140          140
  605000    300.16326   -1558.5941   -38383.553          140          140          140
  606000    299.57204   -1370.9444   -38096.489          140          140          140
  607000    300.02267   -1156.1489   -37778.097          140          140          140
  608000    299.28725   -1371.3184   -38161.922          140          140          140
  609000    299.99316   -1150.7613   -37681.891          140          140          140
  610000    300.31866   -1235.8647   -37847.606          140          140          140
  611000    299.99829   -1035.0972   -37546.198          140          140          140
  612000    299.72704   -1366.7209   -38127.775          140          140          140
  613000    299.85393   -1334.5923   -38061.728          140          140          140
  614000    299.75514   -1219.8696   -37852.417          140          140          140
  615000    300.07044   -1088.9564   -37599.741          140          140          140
  616000    300.25935   -1260.8596   -37940.875          140          140          140
  617000     300.2023   -1252.6273   -37899.945          140          140          140
  618000    300.54586   -1301.4741   -37947.619          140          140          140
  619000    300.37557   -1361.4501   -38096.046          140          140          140
  620000    299.35136   -1239.6925   -37866.282          140          140          140
  621000    299.95571   -1264.7142   -37974.327          140          140          140
  622000    300.36227   -1142.9555   -37720.037          140          140          140
  623000    300.12192   -1291.8166   -37970.857          140          140          140
  624000    300.55375   -1092.0012   -37602.037          140          140          140
  625000    299.44733   -1292.3299     -37964.5          140          140          140
  626000    299.66524   -1394.8035   -38181.572          140          140          140
  627000    299.76786   -1480.2266    -38335.28          140          140          140
  628000    300.20727    -1308.825   -38008.107          140          140          140
  629000    300.03426   -1065.3305   -37532.894          140          140          140
  630000     300.1693     -1268.35   -37935.046          140          140          140
  631000    300.62334   -1241.2274   -37840.925          140          140          140
  632000    299.89311   -1312.3301    -37993.15          140          140          140
  633000    299.56636   -1236.1611   -37862.557          140          140          140
  634000    299.15163   -1294.8051   -38024.332          140          140          140
  635000    300.04281   -1110.7831   -37646.721          140          140          140
  636000    299.94832   -1360.2155   -38080.121          140          140          140
  637000    300.52197   -1282.9464   -37922.872          140          140          140
  638000    299.67992   -1234.2009   -37868.537          140          140          140
  639000     300.2708   -1369.9388    -38079.49          140          140          140
  640000    299.39527   -1130.8869   -37695.271          140          140          140
  641000    300.04476   -1257.1261   -37911.308          140          140          140
  642000    300.03163   -1443.2832   -38231.392          140          140          140
  643000    299.45094   -1244.6004   -37868.072          140          140          140
  644000    300.02916   -1011.9128   -37490.697          140          140          140
  645000    300.00333   -1225.7108   -37877.991          140          140          140
  646000    299.59835   -1113.1739   -37662.562          140          140          140
  647000     300.4426   -1187.9765   -37766.236          140          140          140
  648000    300.07504   -1242.2559   -37860.469          140          140          140
  649000     300.2909   -1267.5034   -37889.224          140          140          140
  650000    299.64855   -1318.3874   -38008.913          140          140          140
  651000    299.65139   -1215.7327   -37842.964          140          140          140
  652000    299.67066   -1232.2245   -37893.152          140          140          140
  653000    300.69036   -1272.1572   -37872.572          140          140          140
  654000    300.25715   -1287.8899   -37959.544          140          140          140
  655000    300.55944   -1196.8258   -37791.709          140          140          140
  656000    300.14499   -1182.4392   -37782.285          140          140          140
  657000    300.45652   -1386.7386   -38086.977          140          140          140
  658000    300.12763   -1382.9559   -38095.583          140          140          140
  659000    299.61498   -1184.2048   -37794.439          140          140          140
  660000    299.83003   -1326.6428   -38040.855          140          140          140
  661000      299.603   -1257.1447    -37912.55          140          140          140
  662000    300.52981   -1282.9322   -37926.492          140          140          140
  663000    300.36341   -1337.2505   -38008.754          140          140          140
  664000    300.13923   -1340.3778     -38028.7          140          140          140
  665000    300.20276   -1296.1157   -37963.673          140          140          140
  666000    299.38356   -1247.0842   -37912.916          140          140          140
  667000    299.96487    -1266.963   -37945.583          140          140          140
  668000    300.51346   -1293.1461   -37967.155          140          140          140
  669000    299.74287    -1283.378   -38005.674          140          140          140
  670000    299.90012   -1338.6373   -38087.152          140          140          140
  671000    300.36834   -1149.1301   -37728.637          140          140          140
  672000    300.06207   -1209.1163   -37783.249          140          140          140
  673000     298.8719   -1203.1392   -37830.568          140          140          140
  674000    299.64537   -1271.4345   -37920.357          140          140          140
  675000    299.38121   -1250.1283   -37877.007          140          140          140
  676000    300.85551   -1117.8545   -37596.823          140          140          140
  677000      299.483   -1130.3225   -37690.513          140          140          140
  678000    300.46499   -1189.4332   -37772.063          140          140          140
  679000    300.02744   -1339.1273   -38029.901          140          140          140
  680000    299.58128   -1371.1757   -38124.908          140          140          140
  681000    300.77447   -1098.6842    -37631.73          140          140          140
  682000    300.46921   -1148.9041   -37729.219          140          140          140
  683000    301.15905   -1155.3439   -37681.836          140          140          140
  684000    300.05518   -1272.2952   -37928.908          140          140          140
  685000    298.79652   -1348.6242   -38089.428          140          140          140
  686000    300.16595   -1140.2212   -37684.391          140          140          140
  687000    299.93654   -1139.3946    -37665.36          140          140          140
  688000    300.01425   -1170.8181   -37762.491          140          140          140
  689000    300.59612   -1483.2998   -38282.905          140          140          140
  690000     299.1204   -1344.9967     -38061.8          140          140          140
  691000    299.86221    -1308.961    -37982.78          140          140          140
  692000    299.69094   -1200.0806   -37841.869          140          140          140
  693000    300.39835   -1358.2181   -38070.635          140          140          140
  694000    299.83773   -1367.9303   -38115.066          140          140          140
  695000    299.48491   -1477.9803   -38272.038          140          140          140
  696000     299.7572   -1452.7034   -38261.356          140          140          140
  697000    300.40825   -1131.7347   -37669.405          140          140          140
  698000    300.06248   -1206.3285   -37834.233          140          140          140
  699000    300.32661   -1331.5594   -38031.421          140          140          140
  700000    300.77098   -1349.0291   -38050.955          140          140          140
  701000    301.08755   -965.00481   -37373.134          140          140          140
  702000     300.8421   -1125.4164   -37667.366          140          140          140
  703000    300.40193   -1063.4259   -37549.599          140          140          140
  704000    299.68061   -1247.4092   -37918.553          140          140          140
  705000    300.10936   -1267.7274   -37908.209          140          140          140
  706000    300.35436   -1229.7492   -37831.051          140          140          140
  707000    300.04576   -1200.5499    -37801.41          140          140          140
  708000    299.76664   -1179.0062   -37779.515          140          140          140
  709000    300.14902    -1084.822   -37607.393          140          140          140
  710000    299.95104   -1171.0757   -37764.715          140          140          140
  711000    300.59113   -1187.4895   -37775.902          140          140          140
  712000    299.50028   -1183.8967   -37774.729          140          140          140
  713000    299.74317   -1416.2549   -38176.502          140          140          140
  714000    300.18606   -1109.7002   -37658.733          140          140          140
  715000    300.31335   -1102.9317   -37620.615          140          140          140
  716000    299.98449   -1308.3627   -38007.813          140          140          140
  717000    299.97918   -1422.2675   -38224.663          140          140          140
  718000    299.88762   -1435.6719   -38232.621          140          140          140
  719000    300.27159   -1387.7853   -38130.757          140          140          140
  720000    299.78614    -1270.976   -37945.045          140          140          140
  721000    299.27105   -1311.9005   -38049.508          140          140          140
  722000    300.26574   -1282.1526   -37964.364          140          140          140
  723000    299.67798   -1581.1842    -38461.02          140          140          140
  724000    300.25488   -1273.9944   -37941.051          140          140          140
  725000    299.42128   -1395.1347   -38203.305          140          140          140
  726000    300.54507   -1324.7291   -38040.049          140          140          140
  727000    300.37602   -1111.0475   -37674.922          140          140          140
  728000    299.72385   -1046.9133   -37567.157          140          140          140
  729000    300.19283   -1283.9082   -37937.279          140          140          140
  730000     299.6604   -1212.9506   -37845.696          140          140          140
  731000    299.99499   -1260.5913    -37936.49          140          140          140
  732000    300.31614   -1287.2509   -37962.184          140          140          140
  733000    300.10882   -1424.3397   -38218.143          140          140          140
  734000    299.06803   -1467.2386   -38313.218          140          140          140
  735000    300.13769   -1380.5211     -38139.2          140          140          140
  736000    300.35286   -1397.6089   -38208.542          140          140          140
  737000    300.23284   -1359.8857   -38067.548          140          140          140
  738000    299.86175   -1436.6425   -38244.177          140          140          140
  739000    299.80522   -1351.3576   -38075.254          140          140          140
  740000    299.32358   -1310.4432   -38052.984          140          140          140
  741000    299.79383   -1304.5842    -38022.56          140          140          140
  742000    299.83053   -1440.4682   -38253.472          140          140          140
  743000    300.47399   -1208.0642   -37846.619          140          140          140
  744000    300.33891   -867.05622   -37265.436          140          140          140
  745000    300.15288   -1052.6015    -37537.73          140          140          140
  746000    300.66075   -1411.1212     -38133.9          140          140          140
  747000    298.88342   -1248.7423   -37918.074          140          140          140
  748000    300.11629   -1258.2012   -37904.795          140          140          140
  749000    299.39013   -1195.5895   -37871.836          140          140          140
  750000    300.02766   -1387.6215    -38136.86          140          140          140
  751000    299.94595   -1386.1569   -38115.007          140          140          140
  752000    300.11996   -1228.4263   -37805.159          140          140          140
  753000    299.82982   -1233.7967   -37862.121          140          140          140
  754000    299.79753     -1351.88   -38034.156          140          140          140
  755000    300.08796    -1323.737   -37977.224          140          140          140
  756000    299.12638   -1267.3583   -37955.192          140          140          140
  757000    299.59482   -1214.1973   -37818.133          140          140          140
  758000    299.76715   -1157.5564   -37753.836          140          140          140
  759000     299.8199   -1311.7174   -37968.847          140          140          140
  760000    300.93209   -1428.0352   -38153.781          140          140          140
  761000    300.31733   -1314.7203   -37987.379          140          140          140
  762000    299.61512   -1272.5295    -37984.15          140          140          140
  763000    299.77293   -1175.5206   -37747.569          140          140          140
  764000    299.31171   -1270.4594   -37996.827          140          140          140
  765000    299.67918   -1228.6996   -37907.893          140          140          140
  766000    300.43181    -1269.316   -37913.459          140          140          140
  767000    299.39925   -1131.2918   -37731.913          140          140          140
  768000    299.39996   -1181.5737   -37792.988          140          140          140
  769000    300.78792   -1248.7667   -37867.353          140          140          140
  770000    299.73961   -1351.3389   -38122.645          140          140          140
  771000    299.39805   -1200.8563   -37802.878          140          140          140
  772000    298.82912   -1419.7501   -38203.218          140          140          140
  773000    299.91117   -1225.6691   -37811.643          140          140          140
  774000    299.80453   -1136.0515   -37716.251          140          140          140
  775000    299.43161   -1289.1188   -37999.284          140          140          140
  776000    299.56451   -1299.0047   -37984.092          140          140          140
  777000    299.71251   -1142.2104   -37706.148          140          140          140
  778000    300.11988   -1203.7449   -37796.187          140          140          140
  779000    300.72584   -1281.4588   -37895.299          140          140          140
  780000    300.40132   -1187.8528   -37772.922          140          140          140
  781000    300.55261   -1211.4773   -37814.959          140          140          140
  782000    300.48573   -1252.9916    -37883.09          140          140          140
  783000    299.80908   -1317.7088   -38077.243          140          140          140
  784000    299.51713   -1501.3595   -38345.162          140          140          140
  785000     300.2892   -1429.9414   -38194.826          140          140          140
  786000     300.0227   -1304.5148   -38002.022          140          140          140
  787000    300.79802   -1364.6508   -38085.446          140          140          140
  788000    300.03613   -1155.5258   -37695.425          140          140          140
  789000    300.04284    -1122.194   -37634.135          140          140          140
  790000    300.27126   -1222.8066   -37827.713          140          140          140
  791000    300.12138   -1252.3439   -37910.501          140          140          140
  792000    299.43288   -1355.3613   -38068.802          140          140          140
  793000    300.03068   -1186.6271   -37792.142          140          140          140
  794000    299.72182   -1188.8232   -37798.533          140          140          140
  795000    300.50879   -1264.5702     -37893.2          140          140          140
  796000    299.61889   -1347.3585   -38104.526          140          140          140
  797000    300.28067   -1209.7464   -37813.622          140          140          140
  798000    300.42176   -1251.6658    -37892.54          140          140          140
  799000    300.49599   -1197.3802   -37789.634          140          140          140
  800000    299.45804   -1250.6433   -37932.121          140          140          140
  801000    299.73865   -1048.8813   -37573.722          140          140          140
  802000    300.13296   -1058.8026   -37566.629          140          140          140
  803000    299.21503   -1467.4294   -38308.888          140          140          140
  804000    300.27915   -1157.6144   -37716.657          140          140          140
  805000    299.05351   -1242.3909   -37914.533          140          140          140
  806000    299.41082   -1212.7681   -37861.079          140          140          140
  807000    299.62111   -1261.6955   -37881.509          140          140          140
  808000    300.95269   -1266.8481   -37900.036          140          140          140
  809000    300.21877    -1317.373   -38020.534          140          140          140
  810000    299.13896    -1186.311   -37778.046          140          140          140
  811000    299.26088   -1410.2255   -38198.117          140          140          140
  812000     299.5799   -1398.3137   -38140.682          140          140          140
  813000    300.38294   -1098.1143   -37584.881          140          140          140
  814000    299.47949   -1258.2644   -37905.124          140          140          140
  815000    300.26219    -977.0386   -37398.272          140          140          140
  816000    299.95341    -1191.473    -37816.28          140          140          140
  817000    300.13433   -1267.2883   -37939.297          140          140          140
  818000    299.84668   -1134.6526   -37710.876          140          140          140
  819000    299.94794   -1344.8701   -38034.086          140          140          140
  820000    299.47833   -1338.1953   -38027.622          140          140          140
  821000    299.71595   -1254.0742   -37840.722          140          140          140
  822000    299.84052   -1133.6985    -37690.41          140          140          140
  823000    300.87126   -1368.1166   -38067.915          140          140          140
  824000    299.82396   -1278.0276   -37930.424          140          140          140
  825000    300.44355   -1325.9949   -38010.096          140          140          140
  826000    299.58759   -1180.6791    -37815.98          140          140          140
  827000    300.93348    -1174.537    -37746.42          140          140          140
  828000    299.07319   -1259.3337   -37915.084          140          140          140
  829000    300.82212   -1337.7636   -38034.983          140          140          140
  830000    299.68225   -1183.0077   -37777.036          140          140          140
  831000     298.9192    -1225.182   -37887.581          140          140          140
  832000    300.54555   -1218.6458   -37801.141          140          140          140
  833000    299.82368   -1182.4009   -37739.042          140          140          140
  834000    299.24858    -1404.868   -38183.987          140          140          140
  835000    300.19984   -1374.9353   -38090.441          140          140          140
  836000    300.36519   -1417.1866   -38117.709          140          140          140
  837000    299.84691   -1470.2658   -38259.188          140          140          140
  838000        299.9   -1269.6483   -37937.354          140          140          140
  839000    300.32281   -1178.9512   -37789.418          140          140          140
  840000     300.9252   -1148.4005   -37709.186          140          140          140
  841000    299.67393   -1303.5223   -38007.335          140          140          140
  842000    299.99371   -1198.1409   -37756.204          140          140          140
  843000    300.38063   -1210.3696   -37808.272          140          140          140
  844000    299.93106   -1239.7757   -37881.364          140          140          140
  845000    299.58878   -1294.7446   -38011.064          140          140          140
  846000    300.26714   -1108.7547   -37622.338          140          140          140
  847000    299.90794   -1186.8924    -37788.61          140          140          140
  848000    299.32633   -1335.6135   -38066.277          140          140          140
  849000    299.91561   -1324.0866    -38042.14          140          140          140
  850000    299.70345    -1255.575   -37950.948          140          140          140
  851000    300.22189   -1294.3072   -37951.149          140          140          140
  852000    300.68304   -1403.2539   -38180.146          140          140          140
  853000    299.22088   -1093.0807   -37663.045          140          140          140
  854000    299.78156   -1224.0738   -37886.319          140          140          140
  855000    299.86708   -1377.2644   -38103.303          140          140          140
  856000    300.33144   -1378.4685   -38117.984          140          140          140
  857000    300.08035   -1379.0073   -38122.741          140          140          140
  858000    300.59272   -1229.1568   -37827.039          140          140          140
  859000    300.09205   -1170.8843   -37731.317          140          140          140
  860000     299.3421   -1417.5227   -38200.909          140          140          140
  861000    299.41541   -1221.3672   -37898.482          140          140          140
  862000    299.88554   -1279.0739   -37967.104          140          140          140
  863000    299.86328   -1125.1627   -37660.153          140          140          140
  864000    299.31597   -1349.6457   -38106.602          140          140          140
  865000      301.354   -1354.5467   -38033.896          140          140          140
  866000    299.87907   -985.89995    -37462.09          140          140          140
  867000    299.83358   -1067.5953   -37598.085          140          140          140
  868000    300.57765   -1260.1244   -37874.839          140          140          140
  869000    299.94276   -1285.1244   -37989.524          140          140          140
  870000    300.51094   -1142.2028   -37694.203          140          140          140
  871000    300.41493   -1180.7396   -37791.624          140          140          140
  872000    299.61483   -1182.3286   -37821.033          140          140          140
  873000    300.36486   -1235.4114   -37857.423          140          140          140
  874000    299.78029   -1294.9002   -38003.045          140          140          140
  875000    299.83619   -1112.9394   -37664.364          140          140          140
  876000    299.19105   -1127.1269    -37721.49          140          140          140
  877000    299.88967   -1267.9741    -37934.31          140          140          140
  878000    299.90056   -1225.8009   -37867.293          140          140          140
  879000    300.41792    -1219.689   -37849.248          140          140          140
  880000    300.84739   -1297.2782   -37954.611          140          140          140
  881000    299.16121   -1272.3496   -37961.647          140          140          140
  882000    299.82632   -1262.7788   -37902.982          140          140          140
  883000    300.04743   -1172.2314   -37805.581          140          140          140
  884000    300.11905   -1285.1304    -37984.99          140          140          140
  885000    300.12898   -1258.4213    -37947.09          140          140          140
  886000    299.68258   -1140.1184   -37711.759          140          140          140
  887000    300.85858   -1149.6276   -37678.878          140          140          140
  888000    299.97466   -1227.8836   -37869.391          140          140          140
  889000    299.69127   -1264.0276   -37932.696          140          140          140
  890000    300.08613   -1312.4506   -38000.109          140          140          140
  891000    300.17097    -1317.096   -37968.322          140          140          140
  892000    299.55201   -1314.9228   -38018.798          140          140          140
  893000    299.86509   -1366.9558    -38130.66          140          140          140
  894000    300.57814   -1473.4735   -38248.065          140          140          140
  895000    300.21099    -1352.515   -38071.552          140          140          140
  896000    299.88703     -1318.57   -38014.791          140          140          140
  897000    300.37195   -1155.9654   -37748.454          140          140          140
  898000    299.77624   -1273.1864   -37951.814          140          140          140
  899000    299.88533   -1284.4544   -38000.454          140          140          140
  900000     299.9172   -1386.7037   -38161.118          140          140          140
  901000      299.459   -1292.7556   -37971.031          140          140          140
  902000    299.47801   -1426.2836   -38207.025          140          140          140
  903000    299.89004   -1257.9011   -37909.775          140          140          140
  904000    300.15306   -1381.7417   -38069.946          140          140          140
  905000     300.2669   -1252.7796   -37867.192          140          140          140
  906000    299.46846   -1081.1037   -37606.487          140          140          140
  907000    300.76153   -1336.8103   -38021.674          140          140          140
  908000    300.35025   -1142.2957    -37725.59          140          140          140
  909000     299.0741   -1175.5837   -37829.509          140          140          140
  910000     299.8437   -1138.4684   -37715.312          140          140          140
  911000    299.81015   -1340.5994    -38090.34          140          140          140
  912000    300.22163   -1237.1867   -37909.799          140          140          140
  913000    299.62033   -1177.7508   -37762.793          140          140          140
  914000    300.81118   -977.94943   -37408.538          140          140          140
  915000    300.14821   -1177.2658   -37780.168          140          140          140
  916000    299.80884   -1098.2458   -37657.465          140          140          140
  917000    300.50717   -1152.9656   -37706.353          140          140          140
  918000    300.01347   -1347.8685   -38063.116          140          140          140
  919000    300.51247   -1378.0284   -38135.945          140          140          140
  920000    299.62732   -1444.9736   -38255.085          140          140          140
  921000    300.74364   -1271.8496   -37862.015          140          140          140
  922000    300.13474   -1185.5997   -37758.027          140          140          140
  923000    299.42998   -1226.6496   -37873.391          140          140          140
  924000    300.52249   -1378.3935   -38127.808          140          140          140
  925000    300.00213   -1230.9914   -37889.089          140          140          140
  926000    300.06675   -1173.8329   -37790.035          140          140          140
  927000    299.91547   -1339.2793   -38060.318          140          140          140
  928000    300.40989   -1200.0941   -37806.158          140          140          140
  929000    300.10143   -1032.3813   -37510.148          140          140          140
  930000    300.49149   -1196.8688   -37795.756          140          140          140
  931000    299.21667   -1295.1623   -38008.411          140          140          140
  932000    299.72223    -1526.622   -38362.128          140          140          140
  933000    299.97396   -1194.3089   -37750.448          140          140          140
  934000    300.81226   -1174.8661   -37781.193          140          140          140
  935000    300.33189   -1228.8932   -37886.206          140          140          140
  936000    300.11568   -1396.4214   -38099.916          140          140          140
  937000    299.07432   -1276.2418   -37968.057          140          140          140
  938000    300.01823   -1321.2842   -38014.148          140          140          140
  939000    299.78394   -1290.4513   -37997.734          140          140          140
  940000    299.56128    -1222.571   -37870.372          140          140          140
  941000    299.11733    -1220.983   -37891.643          140          140          140
  942000    300.02063   -1293.6516   -37975.235          140          140          140
  943000    300.54481   -1211.7877   -37815.792          140          140          140
  944000    299.82855   -1281.1388   -37950.646          140          140          140
  945000    299.73812   -1107.9051   -37666.001          140          140          140
  946000    298.94172    -1167.966   -37738.944          140          140          140
  947000    299.28575   -1107.5956   -37650.346          140          140          140
  948000    298.93615   -1225.1291   -37857.238          140          140          140
  949000    301.00191   -1113.0671   -37644.713          140          140          140
  950000    299.89525   -1208.5319   -37859.757          140          140          140
  951000    300.31649   -1266.4721   -37934.324          140          140          140
  952000     299.3328   -1118.7804   -37685.002          140          140          140
  953000    300.51285   -1091.2754   -37617.294          140          140          140
  954000    299.92625   -1245.1009   -37893.896          140          140          140
  955000    299.61852   -1319.6656    -37974.18          140          140          140
  956000    300.05327   -1458.3498   -38234.315          140          140          140
  957000    299.51654   -1218.2581   -37833.422          140          140          140
  958000    299.48437   -1378.5419   -38096.515          140          140          140
  959000    299.82373     -1248.16    -37906.35          140          140          140
  960000    300.15842   -1123.1033   -37663.587          140          140          140
  961000    299.23024   -1271.0657   -37934.124          140          140          140
  962000    298.99062   -1337.8628   -38069.207          140          140          140
  963000    299.66084   -1319.5235   -37990.862          140          140          140
  964000    300.01698   -1217.6156   -37842.999          140          140          140
  965000    299.68558   -1193.1689   -37839.359          140          140          140
  966000    300.47164   -1304.9862   -37950.096          140          140          140
  967000    299.42735   -1328.1456   -38041.143          140          140          140
  968000    299.45941   -1222.7136   -37895.626          140          140          140
  969000     300.4169   -1157.5959   -37750.207          140          140          140
  970000    300.78049    -1224.409   -37861.502          140          140          140
  971000     300.0996   -1263.0496   -37916.872          140          140          140
  972000    300.47203   -1158.1658   -37735.564          140          140          140
  973000    299.80884   -1255.9413   -37917.284          140          140          140
  974000    300.02264   -1156.4177   -37699.017          140          140          140
  975000    299.94545   -1332.9603   -38049.526          140          140          140
  976000    300.30501    -1268.424   -37882.745          140          140          140
  977000    300.36691   -1414.3683   -38128.309          140          140          140
  978000    300.15904   -1397.7129    -38126.47          140          140          140
  979000    299.73647   -1216.5607   -37852.618          140          140          140
  980000    300.22831   -1194.4968   -37802.984          140          140          140
  981000    300.13904   -1331.8416   -38033.843          140          140          140
  982000    300.09658   -1308.8087   -37979.035          140          140          140
  983000    299.56776   -1337.9719   -38084.494          140          140          140
  984000    299.82824   -1170.3639    -37780.03          140          140          140
  985000    300.20958   -1330.2345   -38038.578          140          140          140
  986000    299.70767    -1176.651   -37791.679          140          140          140
  987000    299.94702   -1224.6757   -37879.206          140          140          140
  988000    299.81788   -1309.2806   -38002.107          140          140          140
  989000    299.95037   -1314.6629   -38017.603          140          140          140
  990000    300.32318   -1050.1834   -37598.304          140          140          140
  991000    299.19234   -1182.4613   -37865.078          140          140          140
  992000    300.49775   -1344.5706   -38069.679          140          140          140
  993000    300.10843   -1200.7378   -37864.089          140          140          140
  994000    299.42062   -1162.1105   -37819.875          140          140          140
  995000    300.01954   -1170.4355    -37784.72          140          140          140
  996000    299.62963   -1186.0344   -37793.594          140          140          140
  997000    300.26544   -1348.0855   -38034.224          140          140          140
  998000    300.09988   -1510.6201   -38367.378          140          140          140
  999000     301.5244   -1144.9691   -37654.459          140          140          140
 1000000    299.62519   -1440.2478   -38248.152          140          140          140
 1000100    299.79905   -1260.2712   -37955.703          140          140          140
Loop time of 19998.6 on 1088 procs for 1000000 steps with 265838 atoms

Performance: 4.320 ns/day, 5.555 hours/ns, 50.003 timesteps/s
98.0% CPU use with 1088 MPI tasks x 1 OpenMP threads

MPI task timing breakdown:
Section |  min time  |  avg time  |  max time  |%varavg| %total
---------------------------------------------------------------
Pair    | 3947.7     | 7520.9     | 8209.3     | 433.8 | 37.61
Bond    | 27.259     | 52.919     | 60.959     |  36.1 |  0.26
Kspace  | 9291.6     | 9983.4     | 13467      | 377.1 | 49.92
Neigh   | 733.24     | 738.88     | 743.56     |   8.0 |  3.69
Comm    | 740.47     | 860        | 1031.6     | 171.0 |  4.30
Output  | 5.3649     | 5.386      | 5.4567     |   0.3 |  0.03
Modify  | 561.2      | 686.53     | 781.01     | 195.5 |  3.43
Other   |            | 150.6      |            |       |  0.75

Nlocal:    244.336 ave 278 max 173 min
Histogram: 3 5 2 3 23 142 429 366 108 7
Nghost:    5133.18 ave 5262 max 4524 min
Histogram: 3 3 6 2 5 7 33 213 676 140
Neighs:    30.261 ave 3717 max 0 min
Histogram: 1076 0 0 0 1 3 3 1 1 3

Total # of neighbors = 32924
Ave neighs/atom = 0.12385
Ave special neighs/atom = 1.99333
Neighbor list builds = 64009
Dangerous builds = 0

write_restart equil_nvt.rest
PPPM initialization ...
  using 12-bit tables for long-range coulomb (../kspace.cpp:321)
  G vector (1/distance) = 0.263352
  grid = 72 72 72
  stencil order = 5
  estimated absolute RMS force accuracy = 0.00139571
  estimated relative force accuracy = 9.69266e-05
  using double precision FFTs
  3d grid and FFT values/proc = 2816 648
WARNING: Using a manybody potential with bonds/angles/dihedrals and special_bond exclusions (../pair.cpp:218)
Neighbor list info ...
  update every 1 steps, delay 2 steps, check yes
  max neighbors/atom: 2000, page size: 100000
  master list distance cutoff = 12
  ghost atom cutoff = 12
  binsize = 6, bins = 24 24 24
  3 neighbor lists, perpetual/occasional/extra = 3 0 0
  (1) pair eam, perpetual, skip from (3)
      attributes: half, newton on
      pair build: skip
      stencil: none
      bin: none
  (2) pair lj/charmm/coul/long, perpetual, skip from (3)
      attributes: half, newton on
      pair build: skip
      stencil: none
      bin: none
  (3) neighbor class addition, perpetual
      attributes: half, newton on
      pair build: half/bin/newton
      stencil: half/bin/3d/newton
      bin: standard

###### equilibrate - NPT

reset_timestep	0

unfix 1
fix 1 all npt temp 300 300 $(100.0*dt) iso 1.01325 1.01325 $(1000.0*dt)
fix 1 all npt temp 300 300 0.10000000000000000555 iso 1.01325 1.01325 $(1000.0*dt)
fix 1 all npt temp 300 300 0.10000000000000000555 iso 1.01325 1.01325 1


# 1 step per fs
# 1000 steps per ps
# 1000000 steps per ns
run 1000000 # 1 ns
PPPM initialization ...
  using 12-bit tables for long-range coulomb (../kspace.cpp:321)
  G vector (1/distance) = 0.263352
  grid = 72 72 72
  stencil order = 5
  estimated absolute RMS force accuracy = 0.00139571
  estimated relative force accuracy = 9.69266e-05
  using double precision FFTs
  3d grid and FFT values/proc = 2816 648
WARNING: Using a manybody potential with bonds/angles/dihedrals and special_bond exclusions (../pair.cpp:218)
Neighbor list info ...
  update every 1 steps, delay 2 steps, check yes
  max neighbors/atom: 2000, page size: 100000
  master list distance cutoff = 12
  ghost atom cutoff = 12
  binsize = 6, bins = 24 24 24
  3 neighbor lists, perpetual/occasional/extra = 3 0 0
  (1) pair eam, perpetual, skip from (3)
      attributes: half, newton on
      pair build: skip
      stencil: none
      bin: none
  (2) pair lj/charmm/coul/long, perpetual, skip from (3)
      attributes: half, newton on
      pair build: skip
      stencil: none
      bin: none
  (3) neighbor class addition, perpetual
      attributes: half, newton on
      pair build: half/bin/newton
      stencil: half/bin/3d/newton
      bin: standard
Per MPI rank memory allocation (min/avg/max) = 12.85 | 13.03 | 13.79 Mbytes
Step Temp Press Enthalpy Lx Ly Lz
       0    299.79905   -1260.2712   -37955.703          140          140          140
    1000    299.63241   -208.69447   -36401.703    138.64367    138.64367    138.64367
    2000    299.72866   -59.342009   -36176.636     138.1138     138.1138     138.1138
    3000    299.85732   -135.19621   -36275.793    137.82904    137.82904    137.82904
    4000    299.84504   -108.30194   -36270.447    137.60678    137.60678    137.60678
    5000    300.19498   -210.51477   -36421.598    137.56104    137.56104    137.56104
    6000    299.74957    108.19243     -35934.6    137.49697    137.49697    137.49697
    7000    300.65165    85.453914   -35895.745    137.47568    137.47568    137.47568
    8000    299.60169    118.04899   -35893.658    137.48564    137.48564    137.48564
    9000    301.21219    8.3572301   -36030.123    137.46795    137.46795    137.46795
   10000    299.74536   -92.066831   -36256.466     137.5105     137.5105     137.5105
   11000    299.42398   -65.417688   -36155.775    137.44861    137.44861    137.44861
   12000    300.51797   -205.07087   -36381.678     137.4911     137.4911     137.4911
   13000    299.93692   -3.3969694   -36145.034    137.46767    137.46767    137.46767
   14000    300.61473     -78.4074   -36177.958    137.50374    137.50374    137.50374
   15000     299.8087    3.3628251   -36039.954    137.47313    137.47313    137.47313
   16000    300.63329    -35.26442   -36100.032    137.49407    137.49407    137.49407
   17000    299.48975    11.797959   -36051.297    137.44473    137.44473    137.44473
   18000    299.55648    300.66675   -35609.064    137.46118    137.46118    137.46118
   19000    300.64329    54.645248   -35951.441    137.51563    137.51563    137.51563
   20000    300.42651    -223.7979   -36421.563     137.5194     137.5194     137.5194
   21000    299.80731   -130.16591   -36298.741    137.47482    137.47482    137.47482
   22000    299.96848   -28.781288   -36120.476    137.45307    137.45307    137.45307
   23000    300.26901    26.823519    -36006.36    137.44593    137.44593    137.44593
   24000     298.3388   -128.25174   -36348.069    137.46773    137.46773    137.46773
   25000    299.53892    164.30122   -35798.723    137.47212    137.47212    137.47212
   26000    300.22089     73.88917   -35938.022    137.48972    137.48972    137.48972
   27000    299.60383    38.791103   -36047.244    137.39477    137.39477    137.39477
   28000    300.17275   -273.03132   -36479.227    137.41329    137.41329    137.41329
   29000    300.63069   -93.532497   -36255.645    137.38864    137.38864    137.38864
   30000    299.84106   -115.09877   -36282.989    137.39836    137.39836    137.39836
   31000    300.42356   -67.889482   -36172.016    137.42122    137.42122    137.42122
   32000    300.08631   -50.222906   -36117.651    137.48878    137.48878    137.48878
   33000     299.1787   -33.722365   -36168.111    137.48494    137.48494    137.48494
   34000    299.33683   -26.290401   -36191.675    137.42877    137.42877    137.42877
   35000    299.59907     98.63097   -35929.013    137.39315    137.39315    137.39315
   36000    299.93125   -18.862877    -36103.74    137.49259    137.49259    137.49259
   37000    300.32976    97.830314   -35879.124    137.45796    137.45796    137.45796
   38000    300.01225   -22.457818   -36150.911    137.42782    137.42782    137.42782
   39000    299.86778   -78.130977   -36249.416    137.43746    137.43746    137.43746
   40000    299.67936    55.949519   -36001.328    137.51884    137.51884    137.51884
   41000    300.50451    149.09014   -35815.204    137.46191    137.46191    137.46191
   42000    300.00178    140.13449   -35854.896    137.37847    137.37847    137.37847
   43000     300.4395    127.19819   -35887.476    137.40538    137.40538    137.40538
   44000    299.82149    1.0920542   -36073.346    137.47616    137.47616    137.47616
   45000    299.60913   -188.67305   -36407.559    137.44951    137.44951    137.44951
   46000    300.26681   -177.29139   -36342.408    137.47469    137.47469    137.47469
   47000    299.74657    24.417897   -36036.942    137.44699    137.44699    137.44699
   48000    299.93119    75.693624   -36011.787    137.42702    137.42702    137.42702
   49000    300.10295   -92.926364   -36233.395    137.44387    137.44387    137.44387
   50000    300.39517   -14.516258   -36087.323     137.4381     137.4381     137.4381
   51000    300.33738     18.38582   -36063.738    137.49728    137.49728    137.49728
   52000    300.03159   -128.59975    -36334.62    137.43995    137.43995    137.43995
   53000    299.55238   -238.23194   -36518.968    137.44744    137.44744    137.44744
   54000    300.30095   -28.579218   -36115.821    137.45372    137.45372    137.45372
   55000    300.85961    64.478808    -35951.61    137.46516    137.46516    137.46516
   56000    300.68745     247.5811   -35661.774    137.47834    137.47834    137.47834
   57000    300.46425   -124.87665   -36288.291    137.46262    137.46262    137.46262
   58000    299.75477   -91.730787   -36252.134    137.46882    137.46882    137.46882
   59000    300.82995   -19.721011    -36045.55    137.44626    137.44626    137.44626
   60000    299.68125    28.190508   -36044.001    137.34827    137.34827    137.34827
   61000    298.96057   -5.7121034   -36127.846    137.41559    137.41559    137.41559
   62000    300.67154    26.552298   -36074.516     137.4148     137.4148     137.4148
   63000    300.30087   -129.90105   -36253.288    137.42369    137.42369    137.42369
   64000    300.24512   -13.903351   -36083.877    137.47782    137.47782    137.47782
   65000    299.29924    188.53343   -35824.368    137.44004    137.44004    137.44004
   66000    299.90543   -60.801888   -36204.411    137.42111    137.42111    137.42111
   67000    299.92144   -85.547293   -36221.057    137.44864    137.44864    137.44864
   68000    299.84947   -117.18287   -36265.101    137.41552    137.41552    137.41552
   69000    300.49411    139.03015   -35861.806    137.40485    137.40485    137.40485
   70000     300.5183    87.725431   -35905.811    137.43564    137.43564    137.43564
   71000    300.59916   -92.130751   -36240.667    137.42547    137.42547    137.42547
   72000    299.66912    14.421322   -36027.051     137.3964     137.3964     137.3964
   73000    299.34156    125.09555   -35900.657    137.44855    137.44855    137.44855
   74000    300.11785   -31.427093   -36091.331    137.50249    137.50249    137.50249
   75000    299.03706   -98.797057   -36293.921    137.51494    137.51494    137.51494
   76000     300.0927    133.11444   -35848.209    137.41554    137.41554    137.41554
   77000    298.87429    5.4841365   -36106.756    137.42804    137.42804    137.42804
   78000    300.01028    29.994479    -36053.71    137.41873    137.41873    137.41873
   79000    300.86166   -195.16746   -36369.519    137.44636    137.44636    137.44636
   80000    300.59544   -14.239346   -36059.874    137.48639    137.48639    137.48639
   81000    299.79404   -63.306695   -36199.144    137.44152    137.44152    137.44152
   82000    301.20623   -4.0418254   -36037.556    137.38162    137.38162    137.38162
   83000    300.89701    20.993054   -36024.966    137.40991    137.40991    137.40991
   84000    298.47454   -132.76426   -36352.895    137.49149    137.49149    137.49149
   85000     299.7824   -22.067157   -36145.096    137.46924    137.46924    137.46924
   86000    300.06288   -2.4789426   -36086.752    137.42797    137.42797    137.42797
   87000    300.41123   -58.890825   -36189.416    137.43225    137.43225    137.43225
   88000    299.92484    17.805679   -36091.681    137.39256    137.39256    137.39256
   89000    299.84562    54.652632   -36019.041    137.41757    137.41757    137.41757
   90000     300.6291     46.71631   -35997.782    137.46124    137.46124    137.46124
   91000    299.56034   -26.292125   -36133.904    137.40531    137.40531    137.40531
   92000    299.46906   -65.288968   -36193.473    137.45434    137.45434    137.45434
   93000    300.35977    96.690958   -35912.215    137.43341    137.43341    137.43341
   94000     300.3784   -236.74907   -36432.479    137.45643    137.45643    137.45643
   95000    300.10269   -7.1161718   -36092.552     137.4781     137.4781     137.4781
   96000     300.2811    85.948383   -35926.518    137.47775    137.47775    137.47775
   97000    299.83313     44.47483   -36024.945    137.44385    137.44385    137.44385
   98000    299.60245   -155.05837   -36329.005    137.45135    137.45135    137.45135
   99000    301.13908    25.253605   -35995.702     137.3604     137.3604     137.3604
  100000    300.06737   -44.927394   -36180.719    137.48626    137.48626    137.48626
  101000    299.78455   -69.517424    -36171.95     137.4203     137.4203     137.4203
  102000    299.99349    114.08829   -35890.867    137.40578    137.40578    137.40578
  103000    300.09665    30.337733   -36044.814     137.4211     137.4211     137.4211
  104000    300.19116    44.482665   -35977.625    137.43024    137.43024    137.43024
  105000    300.19186   -9.4568692   -36087.724    137.40458    137.40458    137.40458
  106000    299.66856   -122.84334   -36273.127    137.49243    137.49243    137.49243
  107000    299.65498    31.871043   -36053.662    137.43544    137.43544    137.43544
  108000     300.1911    86.098111   -35952.126    137.42473    137.42473    137.42473
  109000    300.48089   -63.343675   -36137.314    137.46711    137.46711    137.46711
  110000    300.58224    73.083773   -35909.386    137.47644    137.47644    137.47644
  111000    299.80818   -145.29106     -36304.3    137.43142    137.43142    137.43142
  112000    299.83116   -68.585535   -36173.347    137.46363    137.46363    137.46363
  113000    300.22284     25.61826    -36057.41    137.47941    137.47941    137.47941
  114000    299.06253   -9.0398183   -36129.342    137.45325    137.45325    137.45325
  115000    300.45139   -96.318093   -36194.463    137.46287    137.46287    137.46287
  116000    300.66642    38.412881   -35989.346    137.46217    137.46217    137.46217
  117000     299.7836    16.156223   -36087.096    137.42209    137.42209    137.42209
  118000    301.03906   -110.71527    -36228.14    137.51586    137.51586    137.51586
  119000    300.17474   -83.014149   -36234.521    137.50005    137.50005    137.50005
  120000    299.84288   -66.333128   -36203.435    137.47212    137.47212    137.47212
  121000    300.38165    38.510527   -36006.067    137.48313    137.48313    137.48313
  122000    300.53032   -8.3335678    -36076.15    137.45283    137.45283    137.45283
  123000    299.61172   -203.13988   -36410.629    137.45084    137.45084    137.45084
  124000     299.0956   -235.70532   -36496.727    137.50756    137.50756    137.50756
  125000     299.3567   -8.0849508   -36096.539    137.47565    137.47565    137.47565
  126000    300.25402   -91.354004   -36226.822    137.43692    137.43692    137.43692
  127000    299.60197   -148.28815   -36356.157    137.39153    137.39153    137.39153
  128000    300.25441   -74.010841   -36192.706    137.48208    137.48208    137.48208
  129000    299.90598    149.09874   -35813.114    137.46582    137.46582    137.46582
  130000     298.1856   -71.039253   -36246.972    137.40809    137.40809    137.40809
  131000    299.92654   -1.3264372   -36076.103    137.46817    137.46817    137.46817
  132000    300.94025    59.888102   -35947.325    137.45066    137.45066    137.45066
  133000    299.63927     -71.3693   -36175.615    137.47462    137.47462    137.47462
  134000    299.74267    34.136944   -35992.065    137.45808    137.45808    137.45808
  135000    299.45542     148.8989   -35871.306    137.50394    137.50394    137.50394
  136000    299.96206    125.57797   -35883.114    137.39865    137.39865    137.39865
  137000    300.49464   -53.705651   -36141.089    137.44303    137.44303    137.44303
  138000    299.76888    23.414806   -36045.376    137.46193    137.46193    137.46193
  139000    301.03277    12.704954   -36001.571    137.46256    137.46256    137.46256
  140000    300.06998    3.8749278   -36061.414     137.4442     137.4442     137.4442
  141000    300.15002    13.439202   -36015.978     137.3845     137.3845     137.3845
  142000    299.47386   -93.059941   -36263.879    137.49665    137.49665    137.49665
  143000    300.30966    39.447072   -36056.637    137.42206    137.42206    137.42206
  144000    300.67857    128.44105   -35851.197    137.46169    137.46169    137.46169
  145000    300.51756    3.6405407   -36055.322     137.4226     137.4226     137.4226
  146000    300.07307    69.954609   -35946.407    137.40023    137.40023    137.40023
  147000    299.63886    114.22067   -35873.026    137.48446    137.48446    137.48446
  148000    300.19402     137.7742   -35846.244    137.45375    137.45375    137.45375
  149000    300.19969    119.38686   -35892.617    137.41949    137.41949    137.41949
  150000    300.06594    103.37238   -35978.974    137.40617    137.40617    137.40617
  151000    299.15096    6.2792447   -36087.382    137.38119    137.38119    137.38119
  152000    300.47786   -116.25706   -36311.296    137.38276    137.38276    137.38276
  153000    299.98231    48.454426   -36044.344    137.37795    137.37795    137.37795
  154000    300.20816    29.560218   -36008.232    137.43641    137.43641    137.43641
  155000    299.04421   -84.693286    -36244.32    137.46303    137.46303    137.46303
  156000    300.53148   -70.814051   -36191.043    137.39998    137.39998    137.39998
  157000    299.55988   -183.07475   -36402.241    137.36209    137.36209    137.36209
  158000    299.87221   -220.13491   -36454.857    137.44312    137.44312    137.44312
  159000    300.24221   -103.23738   -36202.969    137.45152    137.45152    137.45152
  160000    300.31976    89.127535   -35904.967    137.49382    137.49382    137.49382
  161000    299.61485     204.3279   -35795.634    137.41158    137.41158    137.41158
  162000    299.67625   -2.2310214   -36135.389    137.43691    137.43691    137.43691
  163000    300.44787   -120.55241    -36254.54    137.48872    137.48872    137.48872
  164000    299.30377   -3.2552243   -36137.642     137.5157     137.5157     137.5157
  165000    299.70915    16.521318   -36070.581    137.52023    137.52023    137.52023
  166000    299.55548   -70.126165    -36207.33    137.43889    137.43889    137.43889
  167000    300.15081    89.069554   -35934.674    137.39527    137.39527    137.39527
  168000    299.66725    102.48747   -35930.165    137.44278    137.44278    137.44278
  169000    300.47312    172.13504   -35782.703     137.4561     137.4561     137.4561
  170000    299.92784     89.73986       -35974    137.45293    137.45293    137.45293
  171000    299.34385    -17.46974   -36123.889    137.41527    137.41527    137.41527
  172000    300.78103   -35.128365   -36119.722    137.43264    137.43264    137.43264
  173000    299.80215    260.76003   -35709.576    137.39586    137.39586    137.39586
  174000    299.81849     136.9285   -35871.596    137.41338    137.41338    137.41338
  175000    300.04767    4.1459488   -36089.291    137.42152    137.42152    137.42152
  176000    300.72043    -125.4766   -36252.062    137.48682    137.48682    137.48682
  177000    299.45276    -122.9571   -36255.293    137.54415    137.54415    137.54415
  178000    299.32263    199.17801   -35801.407    137.48161    137.48161    137.48161
  179000    299.14509   -72.611177   -36223.136    137.48245    137.48245    137.48245
  180000    299.38332    33.423237   -36034.225    137.52232    137.52232    137.52232
  181000    301.46503   -33.561417   -36081.731    137.47734    137.47734    137.47734
  182000    300.04108   -167.44678   -36376.804    137.48463    137.48463    137.48463
  183000    299.96877    118.64459   -35904.543     137.3792     137.3792     137.3792
  184000    299.83081   -13.652722   -36112.432    137.39862    137.39862    137.39862
  185000    298.98629   -62.208807   -36210.914    137.47112    137.47112    137.47112
  186000    299.37036    134.17872   -35861.048    137.46204    137.46204    137.46204
  187000    299.15235    68.076268   -36025.772    137.42615    137.42615    137.42615
  188000    300.79455    76.878926   -35960.548     137.3654     137.3654     137.3654
  189000    299.32101     10.83994   -36093.265    137.35519    137.35519    137.35519
  190000    299.45488   -33.956376     -36191.1    137.41963    137.41963    137.41963
  191000    300.35488    236.83623    -35736.74      137.373      137.373      137.373
  192000    299.70681    127.59056   -35837.284    137.37321    137.37321    137.37321
  193000    300.23526   -7.6739126   -36098.773    137.38809    137.38809    137.38809
  194000    300.67779   -29.782439   -36082.132    137.45423    137.45423    137.45423
  195000    300.16572   -17.213199   -36118.809    137.44431    137.44431    137.44431
  196000    299.65033   -17.709495   -36104.734    137.44067    137.44067    137.44067
  197000    299.51267   -68.618072    -36203.81    137.47221    137.47221    137.47221
  198000    299.41564    85.446426   -35960.689    137.44762    137.44762    137.44762
  199000    300.13831   -72.381519   -36204.225     137.4177     137.4177     137.4177
  200000    300.20274   -56.853369   -36145.523    137.44039    137.44039    137.44039
  201000    300.10046   -199.08921   -36411.814    137.44031    137.44031    137.44031
  202000    299.50338    88.334098   -35965.567    137.39489    137.39489    137.39489
  203000    300.11464    86.671616   -35940.922    137.40205    137.40205    137.40205
  204000    299.91499   -85.404014   -36227.233    137.46466    137.46466    137.46466
  205000    299.64738    95.837535   -35962.879    137.45712    137.45712    137.45712
  206000    300.17973   -289.16527    -36554.71    137.47201    137.47201    137.47201
  207000    299.30504   -163.13806   -36393.422    137.38458    137.38458    137.38458
  208000    300.13484    129.16821   -35860.621    137.42478    137.42478    137.42478
  209000    299.45282   -165.46542   -36382.227     137.4096     137.4096     137.4096
  210000    300.02817   -285.10357    -36529.61    137.47788    137.47788    137.47788
  211000    300.14219   -80.985534   -36217.595    137.45087    137.45087    137.45087
  212000     300.4257   -47.654951    -36096.79    137.47293    137.47293    137.47293
  213000    299.63054    102.70607     -35948.4    137.47297    137.47297    137.47297
  214000    299.33408   -27.572177   -36139.456    137.47782    137.47782    137.47782
  215000    300.08802    318.15218   -35504.728    137.46602    137.46602    137.46602
  216000    300.13029   -37.747027   -36119.049    137.48103    137.48103    137.48103
  217000    300.57421    4.5095412   -36055.385     137.4621     137.4621     137.4621
  218000    300.29663   -53.971046   -36173.663    137.43293    137.43293    137.43293
  219000     299.7675    46.012195   -36019.274    137.45365    137.45365    137.45365
  220000    299.67535    452.39528   -35395.577    137.36646    137.36646    137.36646
  221000    299.94937    88.268868   -35944.749    137.41638    137.41638    137.41638
  222000    299.70639    19.607144   -36045.334    137.44218    137.44218    137.44218
  223000    299.47548   -44.919132   -36195.248     137.4236     137.4236     137.4236
  224000    299.72771   -4.2559415   -36061.058     137.4958     137.4958     137.4958
  225000    299.73949   -180.84845    -36377.13    137.43622    137.43622    137.43622
  226000    300.52507   -293.66336   -36547.008    137.43393    137.43393    137.43393
  227000    299.68144     -58.9566   -36196.932    137.48186    137.48186    137.48186
  228000    300.22781   -21.196478   -36114.202    137.50246    137.50246    137.50246
  229000    299.26678   -87.225059   -36301.536     137.4929     137.4929     137.4929
  230000    300.34444   -5.1253018   -36099.326     137.4639     137.4639     137.4639
  231000    300.14083   -57.412398   -36154.906    137.42811    137.42811    137.42811
  232000    299.63844    107.23718   -35885.438    137.41925    137.41925    137.41925
  233000    300.11137   -82.367516   -36231.168    137.48932    137.48932    137.48932
  234000    299.94889    -111.6591   -36269.821    137.40477    137.40477    137.40477
  235000    300.30845     20.72813   -36039.328    137.44473    137.44473    137.44473
  236000    299.39376    121.54255   -35897.304     137.4736     137.4736     137.4736
  237000    300.62426    -114.0744   -36203.245    137.44735    137.44735    137.44735
  238000    298.75994    8.7639288   -36102.616     137.4438     137.4438     137.4438
  239000    299.58208     151.6336   -35866.149    137.41073    137.41073    137.41073
  240000      300.573    -45.69341   -36171.383    137.47961    137.47961    137.47961
  241000    300.15885    3.4362819   -36111.363    137.44886    137.44886    137.44886
  242000    299.98627    68.186342   -35972.239    137.48597    137.48597    137.48597
  243000    300.36952    84.975003   -35927.979    137.44438    137.44438    137.44438
  244000     299.6312   -43.353013   -36211.267    137.39453    137.39453    137.39453
  245000    300.23538   -151.50515   -36316.104    137.39875    137.39875    137.39875
  246000     300.5746    46.204124   -35988.578    137.51667    137.51667    137.51667
  247000    299.86076   -99.024042   -36193.783    137.46342    137.46342    137.46342
  248000    299.69991    17.284896   -36057.686     137.4327     137.4327     137.4327
  249000    300.74573    220.44279   -35718.611    137.41541    137.41541    137.41541
  250000    299.37567    196.52879   -35806.316    137.40676    137.40676    137.40676
  251000    300.58563   -99.952996   -36239.674    137.43984    137.43984    137.43984
  252000    299.28614    119.96521   -35902.278    137.39524    137.39524    137.39524
  253000     300.9328   -75.043451   -36191.962    137.41832    137.41832    137.41832
  254000    299.73352    150.48181   -35889.956    137.43151    137.43151    137.43151
  255000    300.51867    34.581723   -35993.143    137.44952    137.44952    137.44952
  256000    300.13371    122.38143   -35869.746    137.47365    137.47365    137.47365
  257000    300.32667    179.97591   -35809.636    137.50263    137.50263    137.50263
  258000    300.45873    120.52829   -35909.369    137.48172    137.48172    137.48172
  259000     301.0233    52.506791   -35991.644    137.51123    137.51123    137.51123
  260000    300.09279    184.66595   -35818.385    137.47647    137.47647    137.47647
  261000    299.91416    6.1564213   -36059.024    137.47152    137.47152    137.47152
  262000    300.17367   -54.922406   -36178.334    137.47258    137.47258    137.47258
  263000     300.0767    205.36756   -35719.927    137.44015    137.44015    137.44015
  264000    299.58396    54.462189   -35994.144    137.43642    137.43642    137.43642
  265000    300.35307   -36.683156   -36109.861     137.4605     137.4605     137.4605
  266000     300.6867    97.438138   -35879.192    137.42124    137.42124    137.42124
  267000    300.11571    147.79712   -35896.515    137.44464    137.44464    137.44464
  268000    300.50758     44.61993   -36024.969    137.42173    137.42173    137.42173
  269000    300.28239     31.37177    -36019.04    137.40834    137.40834    137.40834
  270000    299.55278   -112.42592   -36288.123    137.44418    137.44418    137.44418
  271000    299.73288    59.785904   -36016.373    137.46453    137.46453    137.46453
  272000    300.16636    46.143173   -35980.333    137.47867    137.47867    137.47867
  273000    299.81616   -35.433232   -36145.276    137.42591    137.42591    137.42591
  274000    300.05851   -22.987596   -36083.465    137.37411    137.37411    137.37411
  275000    300.07228   -99.522442   -36187.786    137.44896    137.44896    137.44896
  276000     300.1067    93.071919   -35906.862    137.45479    137.45479    137.45479
  277000    300.31716   -109.03199   -36207.598    137.42584    137.42584    137.42584
  278000    300.17547    11.150067   -36087.272    137.41945    137.41945    137.41945
  279000    299.78366    202.54107   -35751.982    137.38358    137.38358    137.38358
  280000    300.00971    155.37385   -35796.736    137.36606    137.36606    137.36606
  281000    300.65089    205.93067   -35721.935    137.41079    137.41079    137.41079
  282000     300.1747   -5.2754743    -36106.87    137.39972    137.39972    137.39972
  283000    300.23211    232.95165   -35725.566    137.40423    137.40423    137.40423
  284000    300.41564   -44.497227   -36136.378    137.41972    137.41972    137.41972
  285000    299.56845   -284.62584   -36594.343    137.46308    137.46308    137.46308
  286000    299.51689    -138.4836    -36346.32    137.48186    137.48186    137.48186
  287000    300.41883   -89.518997    -36186.95    137.45953    137.45953    137.45953
  288000    300.80641    126.92889   -35857.295    137.44639    137.44639    137.44639
  289000    299.66819   -42.737664   -36142.892    137.41174    137.41174    137.41174
  290000    299.33451   -84.297406   -36256.898    137.42832    137.42832    137.42832
  291000    299.40739    -96.38093   -36236.514    137.36898    137.36898    137.36898
  292000    300.58966    6.2105512   -36029.843    137.50734    137.50734    137.50734
  293000    300.24638    15.317737   -36068.378    137.48986    137.48986    137.48986
  294000    300.96436   0.28020098   -36052.164    137.43273    137.43273    137.43273
  295000    300.09395    26.534845   -36035.132    137.41839    137.41839    137.41839
  296000    299.80784     36.86007   -36051.537    137.41448    137.41448    137.41448
  297000    300.07195   -65.094869    -36145.46    137.36319    137.36319    137.36319
  298000    299.74337   -15.569884   -36069.343    137.46077    137.46077    137.46077
  299000     300.2158    142.77997   -35805.558    137.45764    137.45764    137.45764
  300000    300.38104    165.35352   -35795.321    137.40127    137.40127    137.40127
  301000    300.61787   -82.197136   -36219.736    137.40042    137.40042    137.40042
  302000    299.50099   -70.843805   -36256.568    137.31309    137.31309    137.31309
  303000    300.32055   -45.250845   -36181.214    137.39745    137.39745    137.39745
  304000    300.05745    202.83359   -35747.583    137.38189    137.38189    137.38189
  305000     300.3856   -114.75231   -36263.655    137.44734    137.44734    137.44734
  306000    300.23875     157.9282   -35808.619    137.46918    137.46918    137.46918
  307000    299.29183    173.41729   -35877.286    137.35835    137.35835    137.35835
  308000    299.30803   -166.92205   -36400.499    137.39849    137.39849    137.39849
  309000    299.58875    101.43986   -35938.545    137.38807    137.38807    137.38807
  310000    300.56932   -88.979313   -36214.002    137.47514    137.47514    137.47514
  311000    299.08819   -139.58326    -36342.63    137.45039    137.45039    137.45039
  312000     300.3839   -206.89921   -36429.823    137.40148    137.40148    137.40148
  313000    301.27466    78.975026   -35921.123    137.42136    137.42136    137.42136
  314000    299.26463    19.940976   -36125.751    137.38345    137.38345    137.38345
  315000    299.04389    135.64343   -35890.025    137.37282    137.37282    137.37282
  316000     299.3821    3.5025541    -36120.78    137.40135    137.40135    137.40135
  317000    300.48305    173.54596   -35846.676    137.43224    137.43224    137.43224
  318000    299.97038    127.06247   -35950.046    137.41349    137.41349    137.41349
  319000    300.11743    43.074493   -36018.249    137.45141    137.45141    137.45141
  320000    299.61708    -108.2739   -36292.371    137.46446    137.46446    137.46446
  321000    300.66776   -40.052253   -36156.939    137.47046    137.47046    137.47046
  322000    299.32928   -23.985203   -36177.063    137.44391    137.44391    137.44391
  323000    300.62275    147.92118   -35810.582     137.4039     137.4039     137.4039
  324000    300.00102   -105.63735    -36295.45     137.4302     137.4302     137.4302
  325000    300.22677   -11.041956   -36125.371     137.4322     137.4322     137.4322
  326000    299.83231     15.69075   -36087.824    137.43986    137.43986    137.43986
  327000    300.07109    220.70942   -35756.137    137.34636    137.34636    137.34636
  328000    299.28563   -102.43547   -36296.916    137.43974    137.43974    137.43974
  329000    300.08749   -13.846728   -36089.543     137.4316     137.4316     137.4316
  330000    299.43354   -64.493132   -36239.672    137.39481    137.39481    137.39481
  331000    300.27814   -25.797728   -36127.087    137.41993    137.41993    137.41993
  332000    299.89145   -214.95743   -36457.192     137.4787     137.4787     137.4787
  333000    300.30289    5.2738822   -36052.215    137.42793    137.42793    137.42793
  334000    300.40188    170.03165   -35840.799    137.36722    137.36722    137.36722
  335000    300.67738    136.38205   -35829.983    137.44153    137.44153    137.44153
  336000    299.75669     87.25827    -35960.05     137.4437     137.4437     137.4437
  337000    299.45234    244.22936   -35726.216    137.41062    137.41062    137.41062
  338000    299.24943     32.15858    -36053.85    137.44367    137.44367    137.44367
  339000    300.36129   -213.54827   -36444.913    137.41663    137.41663    137.41663
  340000    299.94163   -212.87572   -36417.049     137.3824     137.3824     137.3824
  341000    300.45286    -22.82381   -36164.661    137.43244    137.43244    137.43244
  342000    300.50001    130.90497   -35919.107    137.41995    137.41995    137.41995
  343000    300.09507   -126.50093   -36310.829     137.4574     137.4574     137.4574
  344000    300.52997   -127.02876   -36281.417    137.47088    137.47088    137.47088
  345000    300.46565    81.641257   -35965.959    137.42808    137.42808    137.42808
  346000    299.06875    38.952586    -36037.33    137.40921    137.40921    137.40921
  347000    298.89274    92.732312    -35966.65    137.47871    137.47871    137.47871
  348000     299.8806    12.469776   -36060.759    137.49441    137.49441    137.49441
  349000    299.72876    27.108481   -36081.991    137.45873    137.45873    137.45873
  350000     299.6188   -181.05625   -36366.357    137.40524    137.40524    137.40524
  351000     299.6208    -91.73236   -36251.914    137.45645    137.45645    137.45645
  352000    299.77056   -95.040573   -36267.545    137.47786    137.47786    137.47786
  353000    299.82288    74.273328   -35995.398    137.41104    137.41104    137.41104
  354000    300.46676    140.19744   -35919.197    137.40415    137.40415    137.40415
  355000    300.22968   -60.978347   -36188.873    137.41828    137.41828    137.41828
  356000    300.17349    40.119823   -36038.474    137.43185    137.43185    137.43185
  357000    300.13289    51.382063   -36016.761      137.419      137.419      137.419
  358000    300.69295    214.38333   -35749.169    137.39426    137.39426    137.39426
  359000    301.04061    149.07598   -35796.627    137.39808    137.39808    137.39808
  360000    299.87355    89.197003   -35927.046    137.40886    137.40886    137.40886
  361000    299.80491   -6.7135793   -36123.625     137.4446     137.4446     137.4446
  362000    300.89518   -132.45455   -36285.445    137.41869    137.41869    137.41869
  363000    299.88737   -91.916943   -36261.529     137.4197     137.4197     137.4197
  364000    300.45013    166.46934    -35845.68    137.32802    137.32802    137.32802
  365000    300.70851    47.746682   -35989.104    137.38002    137.38002    137.38002
  366000    299.50914    294.05656   -35639.463    137.39126    137.39126    137.39126
  367000    300.85694     187.8932   -35759.653    137.35962    137.35962    137.35962
  368000    299.78798    2.5185094   -36082.045    137.42848    137.42848    137.42848
  369000    300.05102    -50.19703   -36140.042    137.39109    137.39109    137.39109
  370000    300.40723    13.278624   -36079.586    137.37613    137.37613    137.37613
  371000    300.35398    43.187185   -36019.122    137.39201    137.39201    137.39201
  372000    299.60491    266.28829   -35661.388    137.34688    137.34688    137.34688
  373000    299.98358   -102.67591   -36216.805    137.38525    137.38525    137.38525
  374000     300.1776   -80.298391   -36240.569    137.36821    137.36821    137.36821
  375000    300.73181   -176.51692   -36355.258    137.39928    137.39928    137.39928
  376000    300.03628    164.45442   -35830.525    137.38481    137.38481    137.38481
  377000    299.92279    90.465087   -35983.403    137.40916    137.40916    137.40916
  378000    299.78083   -205.44412    -36457.23     137.4504     137.4504     137.4504
  379000    299.76898   -125.73362   -36330.819    137.41991    137.41991    137.41991
  380000    300.51549   -25.413022    -36102.17    137.44997    137.44997    137.44997
  381000     299.9531   -81.451102    -36254.86    137.42305    137.42305    137.42305
  382000    299.60774   -182.09802   -36407.895     137.4052     137.4052     137.4052
  383000    299.43388   -59.527731   -36268.488    137.43314    137.43314    137.43314
  384000    299.06867    211.70185   -35833.325    137.39972    137.39972    137.39972
  385000    299.38007   -79.438528   -36236.321    137.45295    137.45295    137.45295
  386000    300.81997    110.36894   -35863.267    137.48225    137.48225    137.48225
  387000    299.63825    161.23225   -35820.174    137.50179    137.50179    137.50179
  388000    299.68755    170.82055   -35788.887     137.4371     137.4371     137.4371
  389000    299.91953    138.82682    -35836.46     137.4646     137.4646     137.4646
  390000    299.24224    40.777306   -36053.846    137.49892    137.49892    137.49892
  391000     301.0039    132.09547    -35825.35    137.52627    137.52627    137.52627
  392000    300.41656  -0.34780773   -36097.604    137.46635    137.46635    137.46635
  393000    300.35942   -120.25232   -36251.842    137.47674    137.47674    137.47674
  394000    300.15557    13.808937   -36049.232    137.48774    137.48774    137.48774
  395000     299.5265   -200.14239   -36414.885    137.43899    137.43899    137.43899
  396000    299.80574   -65.127386   -36198.361    137.45054    137.45054    137.45054
  397000    300.30661    111.57982    -35910.93    137.39426    137.39426    137.39426
  398000    300.72272   -122.60878   -36259.214    137.43632    137.43632    137.43632
  399000    300.60525    100.62023   -35898.366    137.44357    137.44357    137.44357
  400000    299.56425    35.116036   -36066.484    137.41427    137.41427    137.41427
  401000    299.90447   -2.3483388   -36089.732    137.42206    137.42206    137.42206
  402000    300.11455    151.71344   -35855.014    137.39589    137.39589    137.39589
  403000    299.44008   -79.885384   -36252.346    137.41615    137.41615    137.41615
  404000    299.55951   -278.69005   -36543.139    137.45101    137.45101    137.45101
  405000    299.62211   -175.81635   -36392.432    137.41747    137.41747    137.41747
  406000    300.07748   -88.117021   -36236.802    137.42316    137.42316    137.42316
  407000    299.53156    134.20785   -35865.624    137.40797    137.40797    137.40797
  408000    299.87776    163.89823   -35808.723    137.41071    137.41071    137.41071
  409000    299.51514    68.242699   -35973.878    137.44153    137.44153    137.44153
  410000    300.24779   -40.053702   -36174.056    137.42555    137.42555    137.42555
  411000    300.03927   -279.18631    -36544.18     137.4611     137.4611     137.4611
  412000    299.44675   -234.44943   -36520.052     137.4819     137.4819     137.4819
  413000    299.97371    104.03377   -35909.122    137.43706    137.43706    137.43706
  414000    299.82995   -39.981349   -36151.801    137.48924    137.48924    137.48924
  415000    299.57511   -101.12267   -36281.529    137.45237    137.45237    137.45237
  416000    300.10825   -51.725406   -36161.032    137.45384    137.45384    137.45384
  417000    299.46478   -114.01232   -36267.313    137.45788    137.45788    137.45788
  418000    299.62257    71.570297   -36002.915    137.36654    137.36654    137.36654
  419000    300.23416   -13.274045   -36087.814    137.44162    137.44162    137.44162
  420000    300.15144   -198.15744   -36405.625     137.4289     137.4289     137.4289
  421000    300.01488   -170.76551   -36382.279    137.47032    137.47032    137.47032
  422000    299.97904   -146.71628   -36339.616    137.45831    137.45831    137.45831
  423000    300.33664   -120.62686   -36278.852    137.48804    137.48804    137.48804
  424000    299.88026   -92.944093   -36222.691    137.44018    137.44018    137.44018
  425000    299.32924   -334.02334   -36607.732    137.45464    137.45464    137.45464
  426000    299.70051   -182.46848   -36413.213    137.38091    137.38091    137.38091
  427000    300.24212    26.671622   -36032.802    137.44542    137.44542    137.44542
  428000    299.92015    81.221591   -35985.022    137.40531    137.40531    137.40531
  429000    300.38883   -28.000613   -36140.541    137.46072    137.46072    137.46072
  430000    300.30529    85.495927   -35949.302    137.42551    137.42551    137.42551
  431000    300.67141   -55.906008     -36184.5    137.41069    137.41069    137.41069
  432000    300.03504   -136.56743   -36348.214    137.40656    137.40656    137.40656
  433000    299.61406    69.056583    -35993.14    137.48782    137.48782    137.48782
  434000    299.90206    135.52588   -35884.959    137.40715    137.40715    137.40715
  435000    299.31436   -112.81018   -36308.517    137.45313    137.45313    137.45313
  436000    299.96499    -18.43417   -36127.196    137.44406    137.44406    137.44406
  437000    300.58876    195.86036    -35803.53    137.39847    137.39847    137.39847
  438000    300.02071    125.79656   -35897.323    137.46003    137.46003    137.46003
  439000    300.71552    177.21725    -35769.27    137.42653    137.42653    137.42653
  440000    299.35199   -10.660406   -36123.045    137.44459    137.44459    137.44459
  441000     300.2991    112.73972   -35919.637    137.39139    137.39139    137.39139
  442000    300.59822    3.0032269     -36104.1    137.41218    137.41218    137.41218
  443000    299.94169    148.66125   -35891.774    137.43184    137.43184    137.43184
  444000    299.93346     -164.505   -36343.685    137.43787    137.43787    137.43787
  445000    299.84528    4.2440564   -36048.214    137.47093    137.47093    137.47093
  446000    300.36857   -32.866139   -36094.908    137.45615    137.45615    137.45615
  447000    300.42841   -4.0417655   -36102.864    137.42989    137.42989    137.42989
  448000    300.39494    44.783533    -35996.21    137.43037    137.43037    137.43037
  449000     298.8286    1.9033348   -36144.089    137.49078    137.49078    137.49078
  450000    300.15438     117.3803   -35915.018    137.43922    137.43922    137.43922
  451000    299.42755    38.511972   -36022.975    137.36088    137.36088    137.36088
  452000    299.18945    62.747463   -35990.961    137.38179    137.38179    137.38179
  453000    299.75605   -22.295219   -36148.032    137.39847    137.39847    137.39847
  454000     300.5317   -201.10561   -36374.983    137.48357    137.48357    137.48357
  455000    300.28342    52.986658   -35994.135    137.50062    137.50062    137.50062
  456000    299.62003    185.59097   -35797.493    137.46668    137.46668    137.46668
  457000    300.38382    89.726489   -35892.748    137.47746    137.47746    137.47746
  458000     299.7512    120.59358   -35926.645    137.39966    137.39966    137.39966
  459000    299.26196    22.000261   -36090.598    137.42672    137.42672    137.42672
  460000     300.1561   -300.81625   -36551.683     137.4749     137.4749     137.4749
  461000    300.14147    27.787301   -36021.067    137.48878    137.48878    137.48878
  462000    299.86809    94.027447    -35900.14    137.39211    137.39211    137.39211
  463000    299.93411   -44.396031   -36120.347    137.44853    137.44853    137.44853
  464000    299.20759     39.65718   -36052.863    137.41795    137.41795    137.41795
  465000    299.79334    39.185766   -36005.098    137.43767    137.43767    137.43767
  466000    300.37667   -175.36623   -36344.075    137.35596    137.35596    137.35596
  467000    299.69668   -27.896753   -36162.659    137.37934    137.37934    137.37934
  468000    300.11342    45.791023    -36011.24    137.39988    137.39988    137.39988
  469000    300.36006    20.373159   -36075.265    137.38424    137.38424    137.38424
  470000     300.1069   -79.121951   -36200.877    137.47269    137.47269    137.47269
  471000    299.95841   -74.046332   -36203.668     137.4477     137.4477     137.4477
  472000     299.6593    24.899926   -36068.563     137.4167     137.4167     137.4167
  473000    299.24133    112.67967   -35940.596     137.3891     137.3891     137.3891
  474000       300.04   -253.78402   -36512.928    137.37346    137.37346    137.37346
  475000     299.3502    -28.80971   -36180.298    137.48523    137.48523    137.48523
  476000    300.33635    3.0999791   -36082.341    137.38985    137.38985    137.38985
  477000    300.31492    121.15118   -35852.585    137.43553    137.43553    137.43553
  478000    299.90009     -32.3292   -36148.783    137.39294    137.39294    137.39294
  479000     299.6075    50.392716    -36057.35    137.47004    137.47004    137.47004
  480000    300.79527    110.05713     -35924.2    137.41876    137.41876    137.41876
  481000    299.57823    74.336389   -35982.311    137.40765    137.40765    137.40765
  482000    300.25934    142.98853   -35867.296    137.43245    137.43245    137.43245
  483000    300.20381   -43.129183    -36187.05    137.43635    137.43635    137.43635
  484000    299.91979    75.038925   -36010.048    137.39363    137.39363    137.39363
  485000     299.7294    -13.99554   -36160.397    137.37736    137.37736    137.37736
  486000    300.69893   -44.093969   -36165.749    137.45873    137.45873    137.45873
  487000    300.18921    189.68692   -35781.188    137.47031    137.47031    137.47031
  488000    299.90796    -244.5951   -36485.495    137.50612    137.50612    137.50612
  489000    300.26848   -10.392466   -36119.115    137.39121    137.39121    137.39121
  490000    299.65304    127.88339    -35913.95    137.39777    137.39777    137.39777
  491000    300.35292   -42.222305   -36135.298    137.44578    137.44578    137.44578
  492000    300.40075    6.7360957   -36083.412    137.48964    137.48964    137.48964
  493000    300.10588    52.680025    -35998.13    137.44073    137.44073    137.44073
  494000    301.30463   -88.211156   -36206.409     137.4597     137.4597     137.4597
  495000     300.7604    37.096186   -36023.369    137.41766    137.41766    137.41766
  496000    300.70155    99.484277    -35906.15    137.39682    137.39682    137.39682
  497000    299.87442    4.5165424   -36087.031    137.47685    137.47685    137.47685
  498000    300.04168   -138.40756   -36328.403    137.39564    137.39564    137.39564
  499000    299.28008   -7.4187602   -36148.969    137.34954    137.34954    137.34954
  500000    300.76852   -131.94731   -36267.288    137.49945    137.49945    137.49945
  501000    299.59246    -75.48298   -36227.362    137.46745    137.46745    137.46745
  502000    299.78947    30.805171   -36062.874    137.40061    137.40061    137.40061
  503000    300.65956    84.470697   -35927.655    137.40564    137.40564    137.40564
  504000    299.57502   -4.3975801   -36094.443    137.39546    137.39546    137.39546
  505000    300.12509   -104.10062   -36212.744    137.42999    137.42999    137.42999
  506000    300.00197    71.508399   -35950.323    137.39022    137.39022    137.39022
  507000     299.6716   -102.92301   -36250.516    137.46266    137.46266    137.46266
  508000    301.58485   -115.84495   -36238.691    137.43458    137.43458    137.43458
  509000    300.42198     -76.1107   -36200.327    137.41516    137.41516    137.41516
  510000    299.49207   -113.64337   -36261.018    137.43292    137.43292    137.43292
  511000    299.93129   -97.447423   -36215.605    137.42116    137.42116    137.42116
  512000    300.55268   -32.362749    -36115.72    137.41707    137.41707    137.41707
  513000    299.44368   -76.515235    -36211.26    137.42129    137.42129    137.42129
  514000    299.27895    -38.39391   -36158.202    137.49477    137.49477    137.49477
  515000    299.61234   -141.36167   -36326.643    137.41442    137.41442    137.41442
  516000    300.61403   -31.294498    -36116.63    137.42323    137.42323    137.42323
  517000    299.14098   -2.6951185   -36131.574    137.36139    137.36139    137.36139
  518000    299.99662    -17.53205   -36126.685    137.48749    137.48749    137.48749
  519000    300.52173    50.537761   -36007.915    137.39702    137.39702    137.39702
  520000    300.17106    117.60716   -35941.918    137.46934    137.46934    137.46934
  521000    299.76897   -33.159232   -36148.806    137.43468    137.43468    137.43468
  522000    299.89806    65.906257   -35966.044    137.46069    137.46069    137.46069
  523000    300.10529   -92.089902   -36242.854    137.44344    137.44344    137.44344
  524000    299.97739    52.272099   -36058.298    137.36066    137.36066    137.36066
  525000    300.07227   -21.905898   -36133.275     137.3453     137.3453     137.3453
  526000    301.38098   -259.42299   -36436.885    137.37582    137.37582    137.37582
  527000    300.24182    -106.8872   -36267.987    137.42708    137.42708    137.42708
  528000    300.74432    -132.2822   -36282.494    137.45552    137.45552    137.45552
  529000    300.88598   -211.61506   -36451.294    137.42948    137.42948    137.42948
  530000    299.24402    26.024726   -36111.648    137.40374    137.40374    137.40374
  531000    300.13067    253.57391   -35698.557    137.41414    137.41414    137.41414
  532000    300.48719    202.09459   -35754.757    137.37332    137.37332    137.37332
  533000    300.59526    -48.07172   -36151.958    137.44999    137.44999    137.44999
  534000    300.37174   -54.574028   -36134.692    137.40113    137.40113    137.40113
  535000    300.23811   -196.31585   -36451.455    137.39394    137.39394    137.39394
  536000    300.03854   -30.077224   -36112.944    137.44487    137.44487    137.44487
  537000    300.52892   -1.7585729   -36099.963    137.40121    137.40121    137.40121
  538000    299.73897    77.769519     -35969.1    137.37357    137.37357    137.37357
  539000    299.93551    62.357797   -36022.622    137.41769    137.41769    137.41769
  540000    298.71691    173.37172   -35865.382    137.37821    137.37821    137.37821
  541000    300.05644   -115.19897   -36297.802    137.37937    137.37937    137.37937
  542000    299.72007    106.66204   -35945.154    137.38276    137.38276    137.38276
  543000     300.1586    68.792259   -35933.801    137.40397    137.40397    137.40397
  544000    299.97138   -20.018059   -36163.016    137.43627    137.43627    137.43627
  545000    299.93519   -59.215702   -36188.706    137.38666    137.38666    137.38666
  546000    300.14523    37.376694   -36038.152    137.44344    137.44344    137.44344
  547000    299.76611    3.3868014   -36101.843    137.38085    137.38085    137.38085
  548000    299.98181   -102.93346   -36274.952    137.41838    137.41838    137.41838
  549000    299.84421   -126.75186   -36288.026    137.44622    137.44622    137.44622
  550000    300.09514    11.104225   -36088.364     137.4166     137.4166     137.4166
  551000    299.16988   -3.1837525   -36168.376    137.42863    137.42863    137.42863
  552000    299.59122    148.60039   -35840.062    137.47184    137.47184    137.47184
  553000    299.92745    -71.39478   -36181.708    137.43056    137.43056    137.43056
  554000    298.72494    59.276906   -36062.282    137.44564    137.44564    137.44564
  555000    299.52054   -86.114591   -36277.424    137.40775    137.40775    137.40775
  556000    300.69859    156.77046   -35830.297    137.38383    137.38383    137.38383
  557000    299.91592    16.522469    -36068.75    137.40712    137.40712    137.40712
  558000    299.60578   -317.09432   -36609.971    137.45959    137.45959    137.45959
  559000    300.20237   -254.30886    -36503.01    137.44117    137.44117    137.44117
  560000    300.19787     43.05255   -36009.974    137.43886    137.43886    137.43886
  561000    299.82883    28.058625   -36040.272    137.45006    137.45006    137.45006
  562000    299.47519   -32.352757   -36160.744    137.42949    137.42949    137.42949
  563000    299.88673   -151.54689    -36375.52    137.44986    137.44986    137.44986
  564000    300.56664   -56.194776   -36211.535    137.42831    137.42831    137.42831
  565000    300.13459   -80.209751   -36240.295    137.46545    137.46545    137.46545
  566000    300.90714    44.477942   -36017.869    137.39754    137.39754    137.39754
  567000    299.73022   -44.028306   -36236.951    137.49082    137.49082    137.49082
  568000     300.1934   -85.256467   -36252.937    137.46219    137.46219    137.46219
  569000    300.20885   -121.15484   -36301.234    137.47796    137.47796    137.47796
  570000    299.95149    92.126626   -35981.366      137.499      137.499      137.499
  571000    300.66016    90.391346   -35933.305    137.44204    137.44204    137.44204
  572000    299.57933   -111.94311   -36300.965     137.4754     137.4754     137.4754
  573000    299.26146   -137.43911   -36356.021    137.45267    137.45267    137.45267
  574000    299.99584    11.648787   -36059.331    137.47896    137.47896    137.47896
  575000    301.13468     7.576125   -36030.221    137.48534    137.48534    137.48534
  576000    299.74528    273.94785   -35658.441    137.45842    137.45842    137.45842
  577000    300.15777    172.69608   -35793.187    137.48289    137.48289    137.48289
  578000    300.06242   -54.113433   -36150.297     137.4236     137.4236     137.4236
  579000    300.51868   -123.29349   -36253.015    137.37512    137.37512    137.37512
  580000     299.6876   -103.80358   -36272.069    137.45552    137.45552    137.45552
  581000    300.16025     37.28744    -36005.34    137.41117    137.41117    137.41117
  582000    300.87779   -315.57359   -36547.689    137.45973    137.45973    137.45973
  583000    299.74994   -332.86961   -36617.588    137.48274    137.48274    137.48274
  584000    299.58966   -89.110753   -36257.486      137.502      137.502      137.502
  585000    300.14875   -156.59703   -36303.575    137.50678    137.50678    137.50678
  586000    300.88981   -126.20886   -36257.115    137.41659    137.41659    137.41659
  587000    300.96539   -22.101331   -36094.204    137.51435    137.51435    137.51435
  588000    299.92426   -97.196086   -36274.821    137.44523    137.44523    137.44523
  589000    299.92435    148.61295   -35880.545    137.44231    137.44231    137.44231
  590000    299.08903   -79.170783   -36248.244    137.50354    137.50354    137.50354
  591000    299.57534   -19.422065   -36152.466    137.43031    137.43031    137.43031
  592000    300.23404   -13.656953   -36120.912    137.41241    137.41241    137.41241
  593000    300.47929   -136.40564   -36303.375    137.38855    137.38855    137.38855
  594000    300.09316   -97.339931    -36283.26    137.38402    137.38402    137.38402
  595000    299.01245   -2.4555825   -36130.997    137.35326    137.35326    137.35326
  596000    299.86319    24.072275   -36061.822    137.41047    137.41047    137.41047
  597000    299.84732     128.3631   -35898.533    137.40201    137.40201    137.40201
  598000    300.25625    70.230644   -35999.985    137.42084    137.42084    137.42084
  599000    299.56383   -232.79139   -36451.432    137.42573    137.42573    137.42573
  600000    300.07911   -84.685374   -36217.056    137.39582    137.39582    137.39582
  601000      299.619    14.580369   -36038.537    137.47008    137.47008    137.47008
  602000    300.21354    126.55216   -35901.601    137.41431    137.41431    137.41431
  603000    299.49872   -103.49848   -36317.336    137.44292    137.44292    137.44292
  604000    299.79624    -90.31199    -36239.93    137.47994    137.47994    137.47994
  605000    299.67765   -126.11109   -36295.311     137.4914     137.4914     137.4914
  606000    299.57308    93.759323   -35969.063     137.4821     137.4821     137.4821
  607000    300.10396    169.55831   -35860.605    137.44728    137.44728    137.44728
  608000    300.46918   -52.199836   -36139.879     137.4912     137.4912     137.4912
  609000    299.26774     109.0381   -35951.917    137.42083    137.42083    137.42083
  610000    299.93184    103.92414   -35950.346    137.39185    137.39185    137.39185
  611000    300.54484    218.58593   -35741.863    137.43135    137.43135    137.43135
  612000     300.6996   -42.408508   -36165.178    137.45228    137.45228    137.45228
  613000    299.93232    7.5469046   -36110.457    137.37886    137.37886    137.37886
  614000    300.10795    29.490399   -36012.448    137.41941    137.41941    137.41941
  615000    300.03268   -132.13611   -36282.073    137.44371    137.44371    137.44371
  616000    300.20066   -105.24252    -36269.37    137.43161    137.43161    137.43161
  617000    300.19248   -27.465049   -36066.832    137.41836    137.41836    137.41836
  618000    300.12322     13.02401   -36084.438    137.38042    137.38042    137.38042
  619000    301.07016   -67.961655   -36170.706    137.39304    137.39304    137.39304
  620000    299.78109   -117.25218   -36273.535    137.38001    137.38001    137.38001
  621000    300.71461   -131.19616   -36278.012     137.4159     137.4159     137.4159
  622000    299.16494  -0.11422525   -36115.881    137.49171    137.49171    137.49171
  623000    299.90766    201.50223    -35758.03    137.40685    137.40685    137.40685
  624000    300.10167    91.268667    -35944.17    137.39157    137.39157    137.39157
  625000    298.85874   -31.467682   -36161.235    137.37957    137.37957    137.37957
  626000    300.57641    44.723537   -36009.033    137.41254    137.41254    137.41254
  627000    299.93285    74.657919   -35916.842    137.42969    137.42969    137.42969
  628000    299.07092   -8.2926311   -36133.578    137.36013    137.36013    137.36013
  629000    298.87421   -205.94109   -36490.796     137.4258     137.4258     137.4258
  630000    299.71556   -92.391881   -36274.336    137.46551    137.46551    137.46551
  631000    300.43641   -240.66536   -36521.824    137.43492    137.43492    137.43492
  632000    300.25234   -161.78653   -36346.624    137.50468    137.50468    137.50468
  633000    299.94246   -91.699065   -36252.113    137.39489    137.39489    137.39489
  634000    299.47193    62.976922   -36014.347     137.4359     137.4359     137.4359
  635000    300.03033   -175.78323   -36388.965    137.43965    137.43965    137.43965
  636000    299.90453    13.567011   -36094.279    137.43167    137.43167    137.43167
  637000     299.4585     8.429723   -36055.398    137.47126    137.47126    137.47126
  638000    299.84948    114.71079   -35898.621    137.44515    137.44515    137.44515
  639000    299.83579   -71.133552   -36241.097    137.46444    137.46444    137.46444
  640000    300.65295   -106.05551   -36243.972    137.43096    137.43096    137.43096
  641000    300.36225    151.78011   -35867.646    137.45182    137.45182    137.45182
  642000    300.00688    21.628225   -36047.592    137.44746    137.44746    137.44746
  643000    300.61107   -184.34049   -36325.395    137.43617    137.43617    137.43617
  644000    300.11794     113.6573   -35924.654    137.44385    137.44385    137.44385
  645000    299.30806   -63.926155   -36240.696    137.42303    137.42303    137.42303
  646000    300.45536    45.224117   -36033.212    137.43508    137.43508    137.43508
  647000    299.96354    144.82041   -35899.678    137.44631    137.44631    137.44631
  648000    300.20875    60.988877   -36017.474    137.49636    137.49636    137.49636
  649000    299.17023    -198.7156   -36453.898    137.47504    137.47504    137.47504
  650000    299.82338   -94.724561   -36233.916    137.45636    137.45636    137.45636
  651000    300.84033    140.79309   -35858.136    137.45619    137.45619    137.45619
  652000    299.86289    57.125735   -36000.194    137.40709    137.40709    137.40709
  653000     300.3915    114.13031   -35914.135    137.37112    137.37112    137.37112
  654000    299.58147   -149.30191   -36356.892    137.43072    137.43072    137.43072
  655000    299.13726     215.7336   -35759.561    137.41139    137.41139    137.41139
  656000    299.64309    140.82898   -35848.489      137.465      137.465      137.465
  657000    301.39495    73.999058   -35945.806    137.43133    137.43133    137.43133
  658000    299.82534   -7.6941916   -36102.383    137.50754    137.50754    137.50754
  659000    299.49688   -70.090247   -36244.166    137.43704    137.43704    137.43704
  660000    300.39946   -109.56122   -36232.734    137.40542    137.40542    137.40542
  661000    299.10066   -22.266741   -36159.197    137.44795    137.44795    137.44795
  662000    300.26297   -50.240954   -36184.413    137.42796    137.42796    137.42796
  663000    299.71796   -55.967702   -36185.229    137.40005    137.40005    137.40005
  664000    300.49662   -70.106469   -36156.336    137.49193    137.49193    137.49193
  665000     299.8511    217.95778     -35743.4    137.43865    137.43865    137.43865
  666000    300.87819    125.36628   -35848.587    137.44205    137.44205    137.44205
  667000     299.7311    47.052912   -36038.679    137.42067    137.42067    137.42067
  668000    301.17111    59.907475   -35916.186    137.51905    137.51905    137.51905
  669000    299.84926   -10.282514   -36117.101    137.44045    137.44045    137.44045
  670000     299.8631   -124.97319   -36286.476    137.43862    137.43862    137.43862
  671000    299.86472    58.186767   -36019.171    137.46337    137.46337    137.46337
  672000    300.24371    150.49309   -35846.187    137.39942    137.39942    137.39942
  673000    299.78576   -13.593199   -36158.809    137.45588    137.45588    137.45588
  674000    300.09621    39.366302   -36007.484     137.4629     137.4629     137.4629
  675000    300.26645    50.791241   -35980.967     137.4482     137.4482     137.4482
  676000    300.11545    58.141313   -36009.108    137.41894    137.41894    137.41894
  677000    300.24301    70.961314   -35970.824    137.40115    137.40115    137.40115
  678000    299.90282   -212.12761   -36403.863    137.47745    137.47745    137.47745
  679000    299.55129    66.165558   -35960.396    137.42302    137.42302    137.42302
  680000    299.89007    76.350912   -35956.325     137.3787     137.3787     137.3787
  681000    300.28289    93.302891   -35882.798    137.38848    137.38848    137.38848
  682000    300.00051   -56.474297   -36136.895    137.41453    137.41453    137.41453
  683000    301.01266    42.947561   -36005.783    137.42177    137.42177    137.42177
  684000     300.0361   -47.200146   -36131.514     137.4215     137.4215     137.4215
  685000    300.38267   -84.773661   -36196.773    137.47112    137.47112    137.47112
  686000    300.92346    -8.160289   -36076.772    137.43946    137.43946    137.43946
  687000     299.5974     208.1178   -35801.233    137.46458    137.46458    137.46458
  688000     299.5751    41.419922     -36013.2    137.48743    137.48743    137.48743
  689000    299.51628   -91.632022   -36248.269    137.51333    137.51333    137.51333
  690000    300.62874   -318.57664   -36578.476    137.42124    137.42124    137.42124
  691000    299.77073    25.395032   -36051.619    137.42831    137.42831    137.42831
  692000    299.25098   -72.142736   -36277.235    137.42022    137.42022    137.42022
  693000    299.88001   -198.49115   -36443.399    137.45339    137.45339    137.45339
  694000    300.35596    62.273861   -35991.182    137.40158    137.40158    137.40158
  695000    299.18475     90.40751   -35958.223    137.43147    137.43147    137.43147
  696000    300.06161    2.6589349   -36038.962    137.41061    137.41061    137.41061
  697000    299.52913    98.473482   -35930.096    137.41604    137.41604    137.41604
  698000    300.12024    100.35643   -35943.223    137.42006    137.42006    137.42006
  699000    300.13546     48.85694    -36040.17    137.43499    137.43499    137.43499
  700000     299.9197    108.13269   -35898.451     137.4575     137.4575     137.4575
  701000    299.29196    13.421696   -36131.961    137.43405    137.43405    137.43405
  702000    300.22336    83.070426   -35933.007    137.45116    137.45116    137.45116
  703000    300.08527     90.36944   -35912.864    137.45678    137.45678    137.45678
  704000     299.6295    -89.75697   -36238.961    137.46787    137.46787    137.46787
  705000    300.40494   -160.27001   -36363.718    137.41815    137.41815    137.41815
  706000    300.57763    34.551315   -36023.322    137.41163    137.41163    137.41163
  707000    300.16754    109.66592   -35944.803    137.37567    137.37567    137.37567
  708000    299.43121    37.305478   -36031.162    137.45356    137.45356    137.45356
  709000    299.92682    122.85128   -35903.475    137.45475    137.45475    137.45475
  710000    300.27431   -213.62034   -36370.979     137.3921     137.3921     137.3921
  711000    300.19745   -537.43047   -36887.237    137.40776    137.40776    137.40776
  712000     300.3733    -228.9964   -36398.971    137.43058    137.43058    137.43058
  713000    300.03162    221.56618   -35731.104    137.39682    137.39682    137.39682
  714000    299.58916    -78.26963   -36200.607    137.37274    137.37274    137.37274
  715000    300.15578    166.47162   -35796.858    137.35779    137.35779    137.35779
  716000    299.46311    -124.2038   -36302.007    137.47685    137.47685    137.47685
  717000    299.72855    132.46662    -35892.05    137.38515    137.38515    137.38515
  718000     299.9039    212.21404   -35736.417    137.37005    137.37005    137.37005
  719000    299.98486    182.67354   -35752.899    137.41305    137.41305    137.41305
  720000    300.20556    144.75113   -35847.303    137.42811    137.42811    137.42811
  721000    299.75249    78.385337   -35929.981    137.37923    137.37923    137.37923
  722000    299.65086    123.81826   -35882.691    137.40029    137.40029    137.40029
  723000    300.80979   -111.85362   -36230.314    137.47867    137.47867    137.47867
  724000    300.40612    12.523576   -36013.586    137.41889    137.41889    137.41889
  725000    300.08635    61.344189   -35978.417    137.42995    137.42995    137.42995
  726000    299.99646    28.485943    -36048.54    137.40697    137.40697    137.40697
  727000    300.22079   -316.75904   -36607.706    137.50977    137.50977    137.50977
  728000    300.01052    191.95292   -35796.029    137.42993    137.42993    137.42993
  729000    300.65431    7.7997601   -36080.972    137.38683    137.38683    137.38683
  730000    299.93429    70.485472   -35986.588    137.41257    137.41257    137.41257
  731000    300.79881   -27.129462    -36084.47    137.46608    137.46608    137.46608
  732000    300.36126   -24.761338   -36116.771     137.4463     137.4463     137.4463
  733000    300.24207   -93.882644    -36228.33     137.4494     137.4494     137.4494
  734000    301.17002   -23.500643   -36082.394    137.45315    137.45315    137.45315
  735000      299.933   -81.603363   -36210.511    137.46427    137.46427    137.46427
  736000    299.50368    100.20689   -35989.451    137.35779    137.35779    137.35779
  737000    299.70646   -66.035758    -36194.35    137.42666    137.42666    137.42666
  738000    299.92882   -60.531688    -36192.66    137.42642    137.42642    137.42642
  739000    299.29158    10.037768   -36099.096    137.38439    137.38439    137.38439
  740000    300.12198   -167.79471   -36356.469    137.40076    137.40076    137.40076
  741000    299.92377   -142.96041   -36321.854    137.40261    137.40261    137.40261
  742000    299.78576    53.737717   -36041.197    137.34495    137.34495    137.34495
  743000    299.24596   -127.30146    -36315.33    137.39824    137.39824    137.39824
  744000    300.76594   -103.82826     -36253.3    137.40042    137.40042    137.40042
  745000    300.45062   -202.30636   -36428.337      137.374      137.374      137.374
  746000    300.09034   -259.74875   -36549.234    137.42446    137.42446    137.42446
  747000    299.75179   -45.330399   -36113.881    137.40913    137.40913    137.40913
  748000    299.19643   -175.15177    -36383.24    137.41092    137.41092    137.41092
  749000    300.93588    15.457815   -36028.794    137.40694    137.40694    137.40694
  750000    298.99382    126.04949   -35895.046    137.41205    137.41205    137.41205
  751000    300.73721   -48.176928   -36171.202    137.49629    137.49629    137.49629
  752000    300.06989    119.28865   -35913.218    137.43502    137.43502    137.43502
  753000    299.28429    197.36748   -35806.205    137.40932    137.40932    137.40932
  754000    300.23709   -32.829008   -36155.697    137.37807    137.37807    137.37807
  755000    300.78659   -48.524902    -36166.14    137.39912    137.39912    137.39912
  756000    299.73628   -136.21941   -36388.026    137.43017    137.43017    137.43017
  757000    300.06774   -159.05883   -36405.523    137.45444    137.45444    137.45444
  758000    299.65303   -6.1435042   -36132.874    137.38463    137.38463    137.38463
  759000    300.91751   -55.253134   -36115.586    137.44005    137.44005    137.44005
  760000    300.70942   0.50857991   -36066.044     137.4129     137.4129     137.4129
  761000    300.69093    101.80261   -35936.321    137.43459    137.43459    137.43459
  762000    299.65127    132.80227   -35896.783    137.52202    137.52202    137.52202
  763000    299.48963   -104.11505    -36287.22    137.47568    137.47568    137.47568
  764000    299.62296    289.47053     -35670.6    137.48257    137.48257    137.48257
  765000    299.95954   -83.661023   -36253.863    137.43955    137.43955    137.43955
  766000    300.62909   -166.24231   -36308.807    137.43976    137.43976    137.43976
  767000    299.41115    92.517363   -35969.535    137.45185    137.45185    137.45185
  768000    300.07535    109.74699   -35948.923    137.40818    137.40818    137.40818
  769000    299.87177    -73.33585   -36219.896      137.467      137.467      137.467
  770000    299.99872   -296.71689   -36566.701     137.4318     137.4318     137.4318
  771000    300.07413    107.26134   -35915.153    137.45331    137.45331    137.45331
  772000    300.49129    48.547355   -35998.705    137.49098    137.49098    137.49098
  773000    300.16533    124.65036   -35904.859    137.46718    137.46718    137.46718
  774000    298.96694   -63.685837   -36222.833    137.42192    137.42192    137.42192
  775000    300.02139    186.82833   -35812.219    137.39992    137.39992    137.39992
  776000    299.84135   -84.332719   -36269.274    137.41866    137.41866    137.41866
  777000    300.26557    66.594697   -35991.656    137.44927    137.44927    137.44927
  778000    300.18172   -5.4476283   -36082.434    137.38695    137.38695    137.38695
  779000    299.83159   -190.08743   -36376.027    137.46445    137.46445    137.46445
  780000    300.23629     73.37388   -35985.064    137.44834    137.44834    137.44834
  781000    300.92885    86.893122   -35927.098     137.4391     137.4391     137.4391
  782000    299.96136     331.5835   -35531.895    137.42465    137.42465    137.42465
  783000    300.13378    88.068382   -36010.773    137.43106    137.43106    137.43106
  784000    300.33738    -154.0887   -36350.831     137.4354     137.4354     137.4354
  785000    300.72793    27.564323   -36006.013    137.43766    137.43766    137.43766
  786000    300.40573    36.605477   -36038.884    137.38324    137.38324    137.38324
  787000     300.1258    86.274494   -36001.948    137.39449    137.39449    137.39449
  788000    300.10638     49.99637   -36024.469    137.39532    137.39532    137.39532
  789000    299.77222    67.850316   -36013.264     137.4424     137.4424     137.4424
  790000    299.37244     177.8819   -35825.717    137.36653    137.36653    137.36653
  791000    300.33943   -48.543413   -36159.469     137.3982     137.3982     137.3982
  792000    300.39216   -39.016601   -36159.629    137.43873    137.43873    137.43873
  793000     300.7487   -201.70559   -36389.704    137.52605    137.52605    137.52605
  794000    300.09666    99.061427   -35921.659    137.46081    137.46081    137.46081
  795000    300.95443    59.514665   -35938.194    137.47763    137.47763    137.47763
  796000    299.12096   -58.780539   -36215.337    137.45029    137.45029    137.45029
  797000    299.31083    39.019082   -36034.103    137.45214    137.45214    137.45214
  798000    299.40828   -158.02464   -36355.914    137.42126    137.42126    137.42126
  799000    299.72512   -204.06208   -36431.776    137.43042    137.43042    137.43042
  800000    300.68063    1.5556866   -36052.883      137.388      137.388      137.388
  801000    300.23496    192.72183   -35760.289     137.4342     137.4342     137.4342
  802000    299.89582    144.29835   -35866.283    137.34821    137.34821    137.34821
  803000    299.90924   -18.186212   -36121.092    137.42225    137.42225    137.42225
  804000    301.06451   -31.111558   -36078.191    137.44275    137.44275    137.44275
  805000    300.16972    206.96497   -35746.654    137.43332    137.43332    137.43332
  806000    300.13809   -49.683556   -36164.045    137.47578    137.47578    137.47578
  807000    300.13262    30.349708   -36069.367     137.4405     137.4405     137.4405
  808000    299.45801   -118.56704   -36314.184    137.44729    137.44729    137.44729
  809000    299.84156   -114.86802    -36254.03    137.45074    137.45074    137.45074
  810000    299.61166    13.374099   -36090.862    137.47223    137.47223    137.47223
  811000     299.8546   -149.95144   -36373.699    137.48146    137.48146    137.48146
  812000     299.4656    84.067243   -36035.489     137.4745     137.4745     137.4745
  813000    300.84278    111.76814   -35882.634    137.47907    137.47907    137.47907
  814000    299.36594   -189.92612    -36442.93    137.45979    137.45979    137.45979
  815000    300.73153   -198.67531   -36404.685    137.42396    137.42396    137.42396
  816000    299.40777   -68.046332    -36231.15    137.39766    137.39766    137.39766
  817000    300.47828    7.7164234   -36114.165    137.43234    137.43234    137.43234
  818000    299.41621   -11.144723   -36149.073    137.41758    137.41758    137.41758
  819000    300.78959   -97.258142   -36259.284    137.45664    137.45664    137.45664
  820000    300.22258   -104.53779   -36229.824    137.47362    137.47362    137.47362
  821000    299.84257    82.691074   -35965.641     137.4746     137.4746     137.4746
  822000    299.74038    62.361848   -36013.696    137.42232    137.42232    137.42232
  823000    299.70611    -194.6379   -36441.425    137.46659    137.46659    137.46659
  824000    299.82796   -307.40637   -36599.013    137.40264    137.40264    137.40264
  825000    299.54389   -115.10187   -36299.683     137.3901     137.3901     137.3901
  826000    300.36953   -110.85616   -36276.004    137.45155    137.45155    137.45155
  827000    299.25141   -138.84177   -36349.297    137.39889    137.39889    137.39889
  828000    299.91172    62.078189   -36024.642     137.4108     137.4108     137.4108
  829000    300.16478    70.552668   -35987.359    137.40814    137.40814    137.40814
  830000    300.29249    123.61993   -35872.805     137.3636     137.3636     137.3636
  831000     300.8141   -55.088192   -36144.404    137.39062    137.39062    137.39062
  832000    299.69015    36.506166   -36075.663    137.39856    137.39856    137.39856
  833000    299.49757    12.245619   -36078.648    137.40933    137.40933    137.40933
  834000    300.06257   -25.526261   -36162.459    137.44435    137.44435    137.44435
  835000     299.8956   -55.894152   -36209.461    137.48171    137.48171    137.48171
  836000    299.99498    226.81465   -35735.504    137.49196    137.49196    137.49196
  837000    299.91947    260.08448    -35735.26    137.42824    137.42824    137.42824
  838000    300.16742    165.55332   -35856.458    137.39575    137.39575    137.39575
  839000    299.71704    71.210201   -36054.427    137.41811    137.41811    137.41811
  840000    299.87432   -59.096542   -36242.568    137.44483    137.44483    137.44483
  841000     299.8988    123.08672    -35883.62    137.37003    137.37003    137.37003
  842000    299.67023    94.707017   -35973.257     137.4143     137.4143     137.4143
  843000    300.61456    122.47428   -35872.273    137.44105    137.44105    137.44105
  844000    300.40892   -38.140853   -36124.795     137.4669     137.4669     137.4669
  845000    300.56071   -9.7384013   -36072.987    137.45066    137.45066    137.45066
  846000    300.14738    266.23572   -35635.551    137.40541    137.40541    137.40541
  847000    299.47989    236.75932   -35721.421    137.43177    137.43177    137.43177
  848000    299.10562   -23.927937   -36127.966    137.44205    137.44205    137.44205
  849000    299.90812   -15.809575   -36128.888    137.35337    137.35337    137.35337
  850000    300.30573   -89.155671   -36224.731    137.39327    137.39327    137.39327
  851000    300.10319     113.9834   -35907.335    137.34834    137.34834    137.34834
  852000    300.25359   -23.590134   -36135.529    137.47469    137.47469    137.47469
  853000    299.66788    11.076606   -36100.221     137.4313     137.4313     137.4313
  854000    299.69191    -181.4503   -36407.647    137.46893    137.46893    137.46893
  855000    300.27713   -81.506544   -36226.834    137.41485    137.41485    137.41485
  856000     299.5439    71.604436   -35984.224    137.40895    137.40895    137.40895
  857000     300.3617    25.839117   -36055.159    137.40557    137.40557    137.40557
  858000     299.8104   -71.562312   -36232.973    137.37762    137.37762    137.37762
  859000    299.21157   -11.339869   -36189.961    137.44266    137.44266    137.44266
  860000    300.12478    34.528266   -36069.554    137.38912    137.38912    137.38912
  861000    301.40157     116.2702   -35895.377    137.39975    137.39975    137.39975
  862000    298.77951     52.84221   -36059.358    137.43215    137.43215    137.43215
  863000     300.5175    124.05975   -35878.144    137.46904    137.46904    137.46904
  864000    300.23244    95.272344   -35920.526    137.45267    137.45267    137.45267
  865000    300.29347   -81.352656   -36204.701    137.46851    137.46851    137.46851
  866000    299.77486   -158.35628   -36390.742     137.4351     137.4351     137.4351
  867000    299.69283    53.080562   -36018.744    137.39107    137.39107    137.39107
  868000    298.86484   -52.678327   -36228.073    137.42098    137.42098    137.42098
  869000    299.92192   -53.859243   -36186.875    137.39801    137.39801    137.39801
  870000     299.8386   -195.64469   -36453.274    137.46829    137.46829    137.46829
  871000    299.66881   -9.9601246   -36154.844     137.4394     137.4394     137.4394
  872000    300.06868    39.385559   -36057.016    137.42583    137.42583    137.42583
  873000     299.2227    -112.0822   -36351.149    137.46918    137.46918    137.46918
  874000    300.76901    76.126088   -35985.559    137.44107    137.44107    137.44107
  875000    299.66604    79.369495   -36023.165     137.3753     137.3753     137.3753
  876000    299.89741    29.149425    -36064.96    137.41471    137.41471    137.41471
  877000    300.67583   -6.7940102   -36065.421    137.45172    137.45172    137.45172
  878000    299.71906   -270.57987   -36548.386    137.43355    137.43355    137.43355
  879000    299.77601   0.57741302   -36129.076    137.33473    137.33473    137.33473
  880000    299.82443    21.093674    -36021.14    137.40626    137.40626    137.40626
  881000    299.50897    -76.71549   -36211.258    137.42345    137.42345    137.42345
  882000    299.89161   -143.40071   -36341.116     137.4265     137.4265     137.4265
  883000    300.22746   -126.24837   -36307.956    137.37836    137.37836    137.37836
  884000    300.51582    187.24816   -35758.152     137.3826     137.3826     137.3826
  885000    299.77999   -85.228624   -36187.117    137.44071    137.44071    137.44071
  886000    300.31632   -144.83811   -36293.408    137.42972    137.42972    137.42972
  887000    299.73089    27.374978    -36031.78    137.43853    137.43853    137.43853
  888000     300.0392    167.32751   -35810.614    137.46474    137.46474    137.46474
  889000    300.35328    54.388361   -35993.157    137.38158    137.38158    137.38158
  890000    300.82342   -12.297625   -36122.266    137.42014    137.42014    137.42014
  891000    299.86844    65.233393   -36032.413    137.33258    137.33258    137.33258
  892000    299.23209   -58.492807   -36191.168    137.41728    137.41728    137.41728
  893000    299.69164    -85.92713   -36221.217    137.45677    137.45677    137.45677
  894000    300.20959   -106.07283   -36246.289    137.42063    137.42063    137.42063
  895000    300.46194   -89.296985   -36207.512    137.40283    137.40283    137.40283
  896000    299.83023   -98.451392   -36256.401    137.43201    137.43201    137.43201
  897000    300.58728    114.57352   -35872.382    137.48053    137.48053    137.48053
  898000    299.14197    86.026558   -35982.135    137.43696    137.43696    137.43696
  899000    299.85546   -60.581111   -36177.272    137.50431    137.50431    137.50431
  900000     300.2586    23.764804   -36049.663    137.45895    137.45895    137.45895
  901000    300.29672   -231.66988   -36464.073    137.43906    137.43906    137.43906
  902000    299.63879   -224.71309   -36456.395     137.4968     137.4968     137.4968
  903000    299.59688   -74.011629   -36239.663    137.47067    137.47067    137.47067
  904000    300.79682   -4.0918803   -36047.445    137.46961    137.46961    137.46961
  905000    299.47936    12.729936   -36044.467    137.50668    137.50668    137.50668
  906000     299.8306    94.926087    -35980.09    137.38938    137.38938    137.38938
  907000     299.3977    70.745589   -35973.765    137.47444    137.47444    137.47444
  908000     300.3733   -61.580169   -36172.384    137.48598    137.48598    137.48598
  909000    300.23595   -14.320039   -36117.991    137.42576    137.42576    137.42576
  910000    299.33925   -108.97827   -36295.375    137.44771    137.44771    137.44771
  911000    300.61131    55.464252   -35954.352    137.42048    137.42048    137.42048
  912000    299.57058   -44.494101   -36191.618    137.44796    137.44796    137.44796
  913000    299.96259   -34.448171   -36155.572    137.49384    137.49384    137.49384
  914000    300.06587    75.482858   -35964.201     137.4336     137.4336     137.4336
  915000    299.87744     83.04218    -35968.13     137.4794     137.4794     137.4794
  916000    299.29512    129.26377   -35938.025    137.43504    137.43504    137.43504
  917000    300.30881    1.7110279   -36048.539    137.43575    137.43575    137.43575
  918000    299.85742  -0.37284763   -36085.518    137.43862    137.43862    137.43862
  919000    299.65682    7.3011736   -36092.368     137.4473     137.4473     137.4473
  920000    299.94198   -232.92448   -36480.329    137.44211    137.44211    137.44211
  921000    300.20904   -255.74929   -36527.917    137.44646    137.44646    137.44646
  922000    300.10641   -23.255688   -36119.616     137.4366     137.4366     137.4366
  923000    300.76613    -16.65089   -36087.714    137.43556    137.43556    137.43556
  924000    299.97313    -154.3433   -36335.272    137.42034    137.42034    137.42034
  925000    300.28198     231.7992   -35660.584    137.36446    137.36446    137.36446
  926000    299.83886    110.07538   -35930.027    137.41396    137.41396    137.41396
  927000    300.31103    123.50505   -35863.351    137.43302    137.43302    137.43302
  928000    300.70515   -7.6507375   -36106.377    137.48172    137.48172    137.48172
  929000    299.86939   -39.718417   -36172.084    137.39592    137.39592    137.39592
  930000    300.01816    180.71459   -35812.267    137.39686    137.39686    137.39686
  931000    300.24068    228.21763   -35753.585    137.39533    137.39533    137.39533
  932000    300.30774   -55.954816   -36181.855    137.45514    137.45514    137.45514
  933000    300.15736   -120.12649   -36282.895     137.4551     137.4551     137.4551
  934000    299.58117    -29.93939   -36159.527    137.44615    137.44615    137.44615
  935000     299.9316    54.166533   -35999.489    137.41769    137.41769    137.41769
  936000    300.33799    221.48549   -35756.938    137.44939    137.44939    137.44939
  937000    300.34154   -83.295855   -36207.661    137.39285    137.39285    137.39285
  938000    300.00868   -113.24321   -36300.483    137.45706    137.45706    137.45706
  939000    300.44584     -125.676   -36273.408    137.42187    137.42187    137.42187
  940000    299.38086    -2.229355   -36129.097    137.42993    137.42993    137.42993
  941000    299.78496   -37.963062   -36155.466     137.3902     137.3902     137.3902
  942000    299.54295    201.16359   -35820.306     137.4587     137.4587     137.4587
  943000    300.37141    119.34236   -35870.271    137.38198    137.38198    137.38198
  944000    300.37882    174.83329   -35811.022    137.46081    137.46081    137.46081
  945000    298.71703    110.21144   -35974.313     137.4569     137.4569     137.4569
  946000    300.05948   -42.816405   -36184.769    137.40992    137.40992    137.40992
  947000    300.48313   -152.87314   -36337.523    137.44307    137.44307    137.44307
  948000    299.66755    -7.780979   -36136.079    137.36046    137.36046    137.36046
  949000    299.75181   -61.720198   -36234.835    137.38872    137.38872    137.38872
  950000    299.82905   -17.895168   -36131.666    137.47264    137.47264    137.47264
  951000    299.57667   -54.766229   -36183.939    137.42811    137.42811    137.42811
  952000    299.97093   -60.258265   -36155.162     137.4884     137.4884     137.4884
  953000    300.15598    55.038426   -36005.051    137.41415    137.41415    137.41415
  954000    300.63682   -91.940109   -36222.321     137.4487     137.4487     137.4487
  955000     300.1285   -79.655067   -36231.255    137.44174    137.44174    137.44174
  956000    300.52695    108.90202   -35897.605    137.39851    137.39851    137.39851
  957000    300.00712     6.531046   -36089.823    137.42451    137.42451    137.42451
  958000    299.40233   -173.71522   -36400.336    137.44816    137.44816    137.44816
  959000    300.33221   -166.20751   -36370.002    137.48858    137.48858    137.48858
  960000    299.80349    25.751748   -36089.585    137.43582    137.43582    137.43582
  961000    299.99856    111.09362   -35910.878    137.38016    137.38016    137.38016
  962000    299.67369    162.99707   -35852.732    137.42764    137.42764    137.42764
  963000    299.86067    45.236763   -36013.244    137.46553    137.46553    137.46553
  964000    300.86204   -189.28114   -36358.611    137.40609    137.40609    137.40609
  965000     300.0028    97.500056   -35929.797    137.42383    137.42383    137.42383
  966000    300.11596    237.21913   -35696.618    137.45174    137.45174    137.45174
  967000    300.08804   -4.9926974   -36107.155    137.50548    137.50548    137.50548
  968000    299.85988   -11.842179   -36130.785    137.42459    137.42459    137.42459
  969000    299.18743    62.746744   -36002.475    137.39556    137.39556    137.39556
  970000    300.20656   -51.641009   -36162.272     137.3933     137.3933     137.3933
  971000    300.03271     -32.6227    -36156.98    137.39582    137.39582    137.39582
  972000    299.12789   -146.05655   -36355.904    137.42411    137.42411    137.42411
  973000    300.03135    55.167953   -36036.077    137.44179    137.44179    137.44179
  974000    300.22444    49.488764    -36022.56    137.42042    137.42042    137.42042
  975000    300.26598    82.537483   -35942.606    137.46583    137.46583    137.46583
  976000    300.69535    29.543574    -36008.35    137.43963    137.43963    137.43963
  977000    300.11902    118.57875   -35931.138    137.46884    137.46884    137.46884
  978000    300.18425   -150.43531   -36317.099    137.44844    137.44844    137.44844
  979000    300.53357    11.694423   -36016.905    137.45778    137.45778    137.45778
  980000    299.46802    -122.1724   -36289.629      137.455      137.455      137.455
  981000     299.0681   -161.64568   -36411.921    137.49856    137.49856    137.49856
  982000    299.73446   -18.783883   -36103.479    137.40729    137.40729    137.40729
  983000    300.27655    264.88254   -35657.829    137.38798    137.38798    137.38798
  984000    300.16611   -71.517316   -36210.807    137.45957    137.45957    137.45957
  985000    300.79038    -77.79527   -36176.417    137.41804    137.41804    137.41804
  986000    299.86047   -41.474826   -36194.399    137.44751    137.44751    137.44751
  987000    300.40962    147.00151   -35847.118    137.41809    137.41809    137.41809
  988000    299.89708    196.18366   -35795.636    137.51069    137.51069    137.51069
  989000    300.03044    63.244822   -36006.406    137.46469    137.46469    137.46469
  990000      300.059    123.35649   -35926.831    137.43849    137.43849    137.43849
  991000    300.55466    211.01739   -35781.572    137.36694    137.36694    137.36694
  992000    300.90721     46.06178   -36031.549    137.37268    137.37268    137.37268
  993000    299.56452   -75.820617   -36222.272    137.46147    137.46147    137.46147
  994000    299.84049   -65.342115   -36212.646    137.44591    137.44591    137.44591
  995000    298.87059   -49.403981   -36238.464    137.38043    137.38043    137.38043
  996000    299.66322    64.897586   -35974.647    137.43824    137.43824    137.43824
  997000    299.27669   -188.25644   -36372.018    137.43717    137.43717    137.43717
  998000     300.3545  -0.90916788   -36115.908    137.43785    137.43785    137.43785
  999000    300.05078    188.64244   -35806.229    137.42314    137.42314    137.42314
 1000000    299.20901    144.63123   -35875.397    137.47118    137.47118    137.47118
Loop time of 21772.8 on 1088 procs for 1000000 steps with 265838 atoms

Performance: 3.968 ns/day, 6.048 hours/ns, 45.929 timesteps/s
96.7% CPU use with 1088 MPI tasks x 1 OpenMP threads

MPI task timing breakdown:
Section |  min time  |  avg time  |  max time  |%varavg| %total
---------------------------------------------------------------
Pair    | 3891.6     | 8006.2     | 8630.7     | 483.3 | 36.77
Bond    | 33.281     | 69.391     | 76.964     |  41.3 |  0.32
Kspace  | 9682       | 10330      | 14498      | 428.9 | 47.44
Neigh   | 773.67     | 779.5      | 784.76     |   8.0 |  3.58
Comm    | 731.63     | 827.44     | 901.41     | 159.2 |  3.80
Output  | 5.4237     | 5.4447     | 5.5612     |   0.3 |  0.03
Modify  | 1249.1     | 1355.2     | 1691.3     | 222.1 |  6.22
Other   |            | 399.7      |            |       |  1.84

Nlocal:    244.336 ave 279 max 165 min
Histogram: 3 3 6 0 1 98 417 475 81 4
Nghost:    5322.52 ave 5451 max 4615 min
Histogram: 4 3 5 0 7 5 18 87 744 215
Neighs:    30.4026 ave 3778 max 0 min
Histogram: 1076 0 0 0 1 3 3 2 2 1

Total # of neighbors = 33078
Ave neighs/atom = 0.124429
Ave special neighs/atom = 1.99333
Neighbor list builds = 63996
Dangerous builds = 0

write_restart equil_npt.rest
PPPM initialization ...
  using 12-bit tables for long-range coulomb (../kspace.cpp:321)
  G vector (1/distance) = 0.264897
  grid = 72 72 72
  stencil order = 5
  estimated absolute RMS force accuracy = 0.00132176
  estimated relative force accuracy = 9.17911e-05
  using double precision FFTs
  3d grid and FFT values/proc = 2816 648
WARNING: Using a manybody potential with bonds/angles/dihedrals and special_bond exclusions (../pair.cpp:218)
Neighbor list info ...
  update every 1 steps, delay 2 steps, check yes
  max neighbors/atom: 2000, page size: 100000
  master list distance cutoff = 12
  ghost atom cutoff = 12
  binsize = 6, bins = 23 23 23
  3 neighbor lists, perpetual/occasional/extra = 3 0 0
  (1) pair eam, perpetual, skip from (3)
      attributes: half, newton on
      pair build: skip
      stencil: none
      bin: none
  (2) pair lj/charmm/coul/long, perpetual, skip from (3)
      attributes: half, newton on
      pair build: skip
      stencil: none
      bin: none
  (3) neighbor class addition, perpetual
      attributes: half, newton on
      pair build: half/bin/newton
      stencil: half/bin/3d/newton
      bin: standard
Total wall time: 11:36:19
